Ga32 O48
1.0
       25.1805171967         0.0000000000         0.0000000000
        0.0000070356         5.8707299232         0.0000000000
       -1.3687011041        -0.0000139944         5.7089465868
   Ga   
   32   
Direct
     0.374999821         0.265661001         0.859854400
     0.420640796         0.783535659         0.652347326
     0.922021806         0.215511426         0.697040260
     0.874996543         0.734325826         0.891089261
     0.327972591         0.024519902         0.293970406
     0.329362363         0.518777013         0.296351254
     0.827981710         0.975475311         0.362914920
     0.829364359         0.481217623         0.363330662
     0.422019035         0.784507155         0.147992074
     0.458572328         0.278755337         0.437483430
     0.958572626         0.721245468         0.480659813
     0.920649290         0.216439798         0.189878106
     0.249997318         0.273378193         0.500470281
     0.291426659         0.771570683         0.763154864
     0.791425347         0.228413433         0.820645273
     0.750001490         0.726610899         0.000470243
     0.172030583         0.024527922         0.707058430
     0.170638487         0.518779039         0.704648137
     0.672016144         0.975482464         0.638075471
     0.670635104         0.481226623         0.637640834
     0.041427638         0.278761566         0.563559413
     0.079357117         0.783554435         0.348680615
     0.577977300         0.215515554         0.303976864
     0.541425824         0.721254170         0.520370007
     0.124995358         0.265666962         0.141158536
     0.208574802         0.771569073         0.237856373
     0.708575070         0.228411585         0.180345327
     0.625005543         0.734339714         0.109894753
     0.077980340         0.784505427         0.853037000
     0.000000452         0.500016212         0.023908313
     0.579353392         0.216463849         0.811145127
     0.499998301         0.500010371         0.977124393
     