Ga    O
1.0
       24.6638679504         0.0000000000         0.0000000000
        0.0000000000         6.1189117432         0.0000000000
       -1.3704366123         0.0000000000         5.6656705380
   Ga   
   32   
Direct
     0.420481861         0.250000000         0.686944366
     0.420481861         0.750000000         0.686944366
     0.920481861         0.250000000         0.686944366
     0.920481861         0.750000000         0.686944366
     0.329517722         0.000000000         0.314473003
     0.329517722         0.500000000         0.314473003
     0.829517722         0.000000000         0.314473003
     0.829517722         0.500000000         0.314473003
     0.454876035         0.000000000         0.205490470
     0.454876035         0.500000000         0.205490470
     0.954876006         0.000000000         0.205490470
     0.954876006         0.500000000         0.205490470
     0.295125186         0.250000000         0.795903504
     0.295125186         0.750000000         0.795903504
     0.795125186         0.250000000         0.795903504
     0.795125186         0.750000000         0.795903504
     0.170479134         0.000000000         0.686789632
     0.170479134         0.500000000         0.686789632
     0.670479119         0.000000000         0.686789632
     0.670479119         0.500000000         0.686789632
     0.079517476         0.250000000         0.314289391
     0.079517476         0.750000000         0.314289391
     0.579517484         0.250000000         0.314289391
     0.579517484         0.750000000         0.314289391
     0.204875886         0.250000000         0.205350861
     0.204875886         0.750000000         0.205350861
     0.704875886         0.250000000         0.205350861
     0.704875886         0.750000000         0.205350861
     0.045125544         0.000000000         0.795736015
     0.045125544         0.500000000         0.795736015
     0.545125544         0.000000000         0.795736015
     0.545125544         0.500000000         0.795736015
     