Ga31 O48
1.0
       25.1011123657         0.0000000000         0.0000000000
        0.0000000000         6.1161932945         0.0000000000
       -1.3780708017         0.0000000000         5.7425235630
   Ga    
   31   
Direct
     0.673597276         0.505314231         0.658982456
     0.673597217         0.994685650         0.658981144
     0.170972466         0.500296354         0.686576128
     0.170972526         0.999703646         0.686575711
     0.580023527         0.250000000         0.307616800
     0.583365202         0.749999642         0.303538650
     0.079445601         0.250000000         0.318895727
     0.078783333         0.750000179         0.319595933
     0.705309451         0.250000000         0.172395319
     0.204774320         0.250000000         0.207681537
     0.204729974         0.750000060         0.208285928
     0.544734478         0.498069346         0.779101253
     0.544734597         0.001930296         0.779102564
     0.046100080         0.501178682         0.805083811
     0.046100080         0.998821557         0.805082858
     0.420556813         0.249999881         0.682416737
     0.421214044         0.749999762         0.681692004
     0.919979990         0.250000000         0.693568826
     0.916634560         0.750000298         0.697634578
     0.329029799         0.500291705         0.314707309
     0.329029828         0.999708235         0.314706922
     0.826401770         0.505313873         0.342223197
     0.826401770         0.994686604         0.342221916
     0.453898966         0.501182914         0.196205392
     0.453898966         0.998816788         0.196204409
     0.955262482         0.498068750         0.222077176
     0.955262601         0.001931489         0.222078368
     0.295225620         0.250000000         0.793591917
     0.295273572         0.749999881         0.793008864
     0.794695139         0.250000000         0.828799367
     0.749998689         0.750000060         0.000610616
     