Ga24 O32
1.0
   8.4433728808579716    0.0000000000000000    0.0000000000000000
   0.0082100908230443    7.9665071774956733    0.0000000000000000
   0.4166616003142222   -0.0087016250231432    8.4330811882496270
Ga O
24 32
direct
   0.5000000000000000    0.0000000000000000    0.0000000000000000 Ga
   0.2500000000000000    0.2500000000000000    0.7500000000000000 Ga
   0.5000000000000000    0.5000000000000000    0.5000000000000000 Ga
   0.2500000000000000    0.7500000000000000    0.2500000000000000 Ga
   0.0000000000000000    0.0000000000000000    0.5000000000000000 Ga
   0.7500000000000000    0.2500000000000000    0.2500000000000000 Ga
   0.0000000000000000    0.5000000000000000    0.0000000000000000 Ga
   0.7500000000000000    0.7500000000000000    0.7500000000000000 Ga
   0.8750000000000000    0.8750000000000000    0.1250000000000000 Ga
   0.8750000000000000    0.1250000000000000    0.8750000000000000 Ga
   0.1250000000000000    0.8750000000000000    0.8750000000000000 Ga
   0.6250000000000000    0.6250000000000000    0.1250000000000000 Ga
   0.8750000000000000    0.3750000000000000    0.6250000000000000 Ga
   0.8750000000000000    0.6250000000000000    0.3750000000000000 Ga
   0.1250000000000000    0.3750000000000000    0.3750000000000000 Ga
   0.6250000000000000    0.1250000000000000    0.6250000000000000 Ga
   0.3750000000000000    0.8750000000000000    0.6250000000000000 Ga
   0.3750000000000000    0.1250000000000000    0.3750000000000000 Ga
   0.6250000000000000    0.8750000000000000    0.3750000000000000 Ga
   0.1250000000000000    0.6250000000000000    0.6250000000000000 Ga
   0.3750000000000000    0.3750000000000000    0.1250000000000000 Ga
   0.3750000000000000    0.6250000000000000    0.8750000000000000 Ga
   0.6250000000000000    0.3750000000000000    0.8750000000000000 Ga
   0.1250000000000000    0.1250000000000000    0.1250000000000000 Ga
   0.1138043100000000    0.3861956900000000    0.6138043100000000 O
   0.6361956900000000    0.1361956900000001    0.8638043100000000 O
   0.8638043100000000    0.3638043100000000    0.8638043100000000 O
   0.8638043100000000    0.1361956900000000    0.6361956900000000 O
   0.8861956900000000    0.8861956900000000    0.8861956900000000 O
   0.8861956900000000    0.1138043100000000    0.1138043099999999 O
   0.6361956900000000    0.8638043100000000    0.1361956900000000 O
   0.1138043100000000    0.1138043099999999    0.8861956900000000 O
   0.1138043100000000    0.8861956900000000    0.1138043099999999 O
   0.6361956900000000    0.6361956900000001    0.3638043099999999 O
   0.8638043100000000    0.8638043100000000    0.3638043099999999 O
   0.8638043100000000    0.6361956900000000    0.1361956900000001 O
   0.8861956900000000    0.3861956900000001    0.3861956900000001 O
   0.8861956900000000    0.6138043100000000    0.6138043099999999 O
   0.6361956900000000    0.3638043099999999    0.6361956900000000 O
   0.1138043100000000    0.6138043099999999    0.3861956900000001 O
   0.6138043100000000    0.3861956900000000    0.1138043099999999 O
   0.1361956900000001    0.1361956900000001    0.3638043099999999 O
   0.3638043099999999    0.3638043100000000    0.3638043099999999 O
   0.3638043099999999    0.1361956900000000    0.1361956900000001 O
   0.3861956900000001    0.8861956900000000    0.3861956900000001 O
   0.3861956900000001    0.1138043100000000    0.6138043099999999 O
   0.1361956900000001    0.8638043100000000    0.6361956900000000 O
   0.6138043100000000    0.1138043099999999    0.3861956900000001 O
   0.6138043100000000    0.8861956900000000    0.6138043100000000 O
   0.1361956900000001    0.6361956900000001    0.8638043100000000 O
   0.3638043099999999    0.8638043100000000    0.8638043100000000 O
   0.3638043099999999    0.6361956900000000    0.6361956900000000 O
   0.3861956900000001    0.3861956900000001    0.8861956900000000 O
   0.3861956900000001    0.6138043100000000    0.1138043099999999 O
   0.1361956900000001    0.3638043099999999    0.1361956900000000 O
   0.6138043100000000    0.6138043099999999    0.8861956900000000 O
