Ga127 O192
1.0
  25.5954322115431125    0.0316213996327037    0.1814849339147762
   0.0151210861370560   11.6867803581300382   -0.0081811087467600
  -2.7734833776686996   -0.0110095486001277   11.3797052164050463
Ga O
127 192
direct
   0.4594983125859590    0.1249311230421917    0.7358003040137526 Ga
   0.3736420746516543    0.1279824004360229    0.4303345402695622 Ga
   0.4580613089500201    0.6214048048112606    0.7360663998224943 Ga
   0.3761007858575605    0.6216041609567120    0.4410013101312005 Ga
   0.4119255749623700    0.3695783983825038    0.8300374033329578 Ga
   0.4161645641539773    0.3731160243158047    0.3351604819155199 Ga
   0.4224992438391617    0.8785465660788487    0.8296216717222229 Ga
   0.4133479705612828    0.8728604463999327    0.3448327577660561 Ga
   0.9210834148274590    0.1368593779710943    0.8388038252832613 Ga
   0.9218055739594381    0.1359209912279954    0.3388877122687329 Ga
   0.9927357846621188    0.4947862667643130    0.9888590780443359 Ga
   0.0003576110475457    0.7515550186253208    0.5002253209440578 Ga
   0.9577928769423268    0.3820904119477060    0.7264576768292037 Ga
   0.8746442025192404    0.3784176293674092    0.4424474773651436 Ga
   0.8784641725076153    0.8813840480067415    0.9411286720362332 Ga
   0.8754402630803531    0.8811237594539465    0.4452656424769295 Ga
   0.3397658917770339    0.0046291976448755    0.6593264996991025 Ga
   0.3297726666255321    0.0016653116388359    0.1713445609744210 Ga
   0.3279277512737928    0.4944416243990443    0.6576637875434624 Ga
   0.4101970306586769    0.3866806409644456    0.0851606589252449 Ga
   0.2554796795286608    0.1319084631741101    0.7453355573522571 Ga
   0.3261929634250770    0.2603186096688108    0.1713032869270608 Ga
   0.3354607831729558    0.7496044559441262    0.6547272454559231 Ga
   0.3362251844073463    0.7364546077420243    0.1640875752602867 Ga
   0.8309463385008746    0.0012156606708625    0.6756267470256871 Ga
   0.8368305030616433    0.9930369111915688    0.1698137836359458 Ga
   0.8319775688835479    0.5029901704191879    0.6663321972686664 Ga
   0.8301835148947465    0.5157437406189085    0.1653575119491761 Ga
   0.8277432109530285    0.2557010095947085    0.6566697412591667 Ga
   0.8323930741976586    0.2521180337177925    0.1667360159363847 Ga
   0.8340928103281190    0.7525498010000410    0.6861676317102597 Ga
   0.9121673957166052    0.6375686951761406    0.3283376759652832 Ga
   0.4932579378505129    0.0051746949138891    0.5074133671984513 Ga
   0.4198472852957016    0.8837407044132907    0.0816779915583530 Ga
   0.4580937090472698    0.6238902694392980    0.2285408993722023 Ga
   0.4160904474771089    0.3578763893606022    0.5849978041369299 Ga
   0.4561670363169281    0.1266223389672644    0.2330558677191695 Ga
   0.4968108629584452    0.7490591362430912    0.5105089165206154 Ga
   0.5064376572307493    0.7562373772017078    0.0109833194680802 Ga
   0.9591560118116570    0.8799733769352911    0.7311367534357371 Ga
   0.9601754281328174    0.8758567137025706    0.2236895608173582 Ga
   0.9966705873585265    0.4904202175538596    0.4956209829728780 Ga
   0.9586904928296869    0.3869075934486981    0.2244583602329164 Ga
   0.9209605709237512    0.1346194873099831    0.5860458143604217 Ga
   0.9218596135132280    0.1369091587800703    0.0829799270203355 Ga
   0.9178052501868444    0.6282072236323630    0.5980643008727733 Ga
   0.9112238978243077    0.6372967491496431    0.0723320354421849 Ga
   0.3726797670685947    0.1196322849825157    0.9353372003823028 Ga
   0.2547847671094528    0.1277945561209832    0.4919340036242598 Ga
   0.3742078817470308    0.6306834110063269    0.9305961969462438 Ga
   0.2568144680248791    0.6147016243910149    0.2598225005033811 Ga
   0.2916799870441136    0.3801460595103541    0.8955671893467203 Ga
   0.2936114918421824    0.3740261627978293    0.3986414781270143 Ga
   0.2947100060029944    0.8692708322839150    0.8928659828110027 Ga
   0.2884207476517179    0.8702107273928104    0.3974841709091704 Ga
   0.7914685756186144    0.1275409745761223    0.8983650060728876 Ga
   0.7924107095897746    0.1220897216472280    0.3958514276925015 Ga
   0.7915017322204575    0.6204073772376922    0.8926402062774305 Ga
   0.7903235367543219    0.6237818986933445    0.3996846933896699 Ga
   0.8718881294611898    0.3797766173212694    0.9368541776727644 Ga
   0.7518209236494029    0.3757576864859180    0.2652896351235358 Ga
   0.7562961979262109    0.8669862967249428    0.9942402824746250 Ga
   0.7549065933570264    0.8678944639156562    0.2514780862150214 Ga
   0.1718455011943905    0.9847999296982505    0.8321148051957465 Ga
   0.1683412913604593   -0.0027093719339035    0.3156029272853447 Ga
   0.1630312312591692    0.5119366716061007    0.8298854958515878 Ga
   0.1692076032988742    0.5008323973080835    0.3392096804003303 Ga
   0.1674513783960310    0.2499384709197204    0.8305199963350548 Ga
   0.1715716890096196    0.2464818037374649    0.3245038560579130 Ga
   0.0900757132672988    0.8640074444496534    0.9279544653481124 Ga
   0.1673832770463911    0.7472094927404769    0.3279379625322092 Ga
   0.6708858469000709    0.9949824184002442    0.8287084531615306 Ga
   0.6665935158848612   -0.0002844978962590    0.3350172771810679 Ga
   0.5895380183829605    0.6153537990791702    0.9279908396848068 Ga
   0.6659705306017111    0.5003310512195344    0.3346502073046869 Ga
   0.6640360428382990    0.2591448569068657    0.8348539136650466 Ga
   0.6694218920012295    0.2518399605466098    0.3449306863327982 Ga
   0.6718477334700119    0.7403094454584436    0.8286868962790011 Ga
   0.6626627914844088    0.7468843633997004    0.3230691216529939 Ga
   0.0423969149123228    0.1141955994695127    0.7755348475405787 Ga
   0.0430174010811158    0.1197775715990575    0.2720369703280573 Ga
   0.1249908862334033    0.6202296288976616    0.5559509171226409 Ga
   0.1243383654159961    0.6212031897866773    0.0603028107657704 Ga
   0.0788582753328794    0.3638648515674655    0.6598142993085990 Ga
   0.0786082071660303    0.3678452945413836    0.1596409377473426 Ga
   0.0891227546906226    0.8646286524535622    0.6711169102720079 Ga
   0.0067811323617807    0.0068133137931142    0.0089978651219471 Ga
   0.5793998487934298    0.1303056415523735    0.6651815238171871 Ga
   0.5786014315772217    0.1162527508515506    0.1651958216022208 Ga
   0.5867577689835157    0.6136447523909933    0.6742694864287622 Ga
   0.5029968201852042    0.5027499223421087    0.0113195160110115 Ga
   0.6252938269042075    0.3717120224649038    0.5605011206225967 Ga
   0.6243032330911159    0.3703810119241631    0.0654133833180057 Ga
   0.6215860138195329    0.8714610865239705    0.5657302518232833 Ga
   0.5390555882552702    0.8747644872150790    0.2766386377993073 Ga
   0.1293042433703445    0.1237111456728455    0.5598044691251153 Ga
   0.2488877831197655    0.1244003771730538    0.0077874175707718 Ga
   0.2452610942802525    0.6359833813243442    0.7376210076580182 Ga
   0.2496056738725467    0.6261387063061100   -0.0028601226857507 Ga
   0.2078350118827932    0.3743281898161047    0.6030104473672933 Ga
   0.2070218527468153    0.3830919253312466    0.1003292277781472 Ga
   0.2113228170898994    0.8774636756203249    0.5981841451235924 Ga
   0.2103183970800653    0.8712785992722841    0.1055514496250483 Ga
   0.7079196005805757    0.1274796309195915    0.6081968177618859 Ga
   0.7078631784216797    0.1243285314955257    0.1043827484820597 Ga
   0.7097595680756040    0.6281912835422749    0.6036554790989788 Ga
   0.7076213520386766    0.6325576921076768    0.1056142897997889 Ga
   0.7434082454408855    0.3856232416562050    0.7386882381606779 Ga
   0.7458215974904145    0.3838706158822739    0.9962374314691214 Ga
   0.7481766075903085    0.8749247834600643    0.5122955632287294 Ga
   0.6271430263440124    0.8716607584288050    0.0577512709397560 Ga
   0.1253668758886572    0.1245920559834135    0.0587312889301642 Ga
   0.0050739085652415    0.0122888399674845    0.5044207208324314 Ga
   0.0405762883637663    0.6260621647932170    0.7778162126892691 Ga
   0.0414300414590206    0.6233366533308274    0.2685155719395906 Ga
   0.0785618706258480    0.3675606582147307    0.9157039355864416 Ga
   0.0798214717210504    0.3652400457537878    0.4137856651969676 Ga
   0.0003312842003010    0.7502796725244032   -0.0003103237972757 Ga
   0.0834005574568933    0.8743113387549278    0.4018407671204672 Ga
   0.5806669536055882    0.1135231002357423    0.9205507963442653 Ga
   0.5768392081845091    0.1326186752714707    0.4178783145369784 Ga
   0.5382436196629273    0.3783104371946376    0.7757906397462588 Ga
   0.5010762582359550    0.4837873792233571    0.5042035992412635 Ga
   0.4959777227907077    0.2404535254937699    0.0021176352182296 Ga
   0.5405664456623976    0.3775615614642753    0.2729631219450789 Ga
   0.5431962309344628    0.8682949624807721    0.7727782659624396 Ga
   0.5798484829920891    0.6252686180191911    0.4053837157678007 Ga
   0.2494220392787115    0.0067301127018509    0.8710404837056269 O
   0.2448092213218631   -0.0006822635573442    0.3811630182127566 O
   0.2439837305749981    0.5071980127758390    0.8720578417046286 O
   0.2455713493412681    0.4953121740299372    0.3617363954586597 O
   0.2468575628978831    0.2439404386719529    0.8693770529730914 O
   0.2469639359253082    0.2498812743669514    0.3805134764461185 O
   0.2515840206232792    0.7399743831584407    0.8735425040397407 O
   0.2454145602006654    0.7418577359220343    0.3589068950631605 O
   0.7478155392965351    0.0014619877511957    0.8867880818330289 O
   0.7469406341050079    0.9905580520521565    0.3745844275691655 O
   0.7524988676787410    0.4855976133431276    0.8751593868398664 O
   0.7460536182479934    0.4979033489433917    0.3688472213228853 O
   0.7465683655698255    0.2588193787099834    0.8775870294647584 O
   0.7474426185458813    0.2466589142150621    0.3652619034366503 O
   0.7485607185958446    0.7490190145548700    0.8797869232973451 O
   0.7474901776021968    0.7603987405169135    0.3763321532176523 O
   0.9980878830210066    0.1173096816175398    0.6255672359570853 O
   0.9980251220729134    0.1206573098370985    0.1242210626855598 O
   0.9968589237212977    0.6265700800960714    0.6162004731822486 O
   0.9957097536775735    0.6243934199679886    0.1157983912468421 O
   0.0019728283130901    0.3821407690061949    0.6212151657157087 O
   0.0015811870346189    0.3841829899117807    0.1198524933957856 O
   0.0028865862972878    0.8777556674576732    0.6156428599427793 O
   0.9989874129013958    0.8789075649558160    0.1107943136880431 O
   0.5040814492586624    0.1142182610203034    0.6310664270725623 O
   0.5023901702904656    0.1348133761509031    0.1307774468310973 O
   0.5032246071042420    0.6220286878074234    0.6229018835193235 O
   0.4983888318217931    0.6269967954812095    0.1160710503386075 O
   0.4963930747046153    0.3795504752164996    0.6259954923716136 O
   0.4972787943775505    0.3738987383069066    0.1171146211681864 O
   0.5070541886230896    0.8745188197320304    0.6176458276212484 O
   0.4978623413240018    0.8692001090401895    0.1272361262684145 O
   0.4161042411387511   -0.0013927779613706    0.7157729101055512 O
   0.4132844678917512    0.9917007797913471    0.2070420720409853 O
   0.4150291477466529    0.4881919054686196    0.7117659630363371 O
   0.4189493555521361    0.4907086043261540    0.2131533942354229 O
   0.4198914359196246    0.2577717491467774    0.7151021636168596 O
   0.4133954051995403    0.2599375824706679    0.2045750196220395 O
   0.4146275428064210    0.7480710731087539    0.7209979529593299 O
   0.4146522949461073    0.7595269638178807    0.2088017572852527 O
   0.9134204406944177    0.0142492936136498    0.7063640765744341 O
   0.9151722946347525    0.0125916320632215    0.2093961839403564 O
   0.9114702648088202    0.5041104007695029    0.6976230864221691 O
   0.9109212185295477    0.5131313936490660    0.2095877719622490 O
   0.9135956016156154    0.2464750998798240    0.7073442351886863 O
   0.9143806232975922    0.2497706528136117    0.2078517514011680 O
   0.9126144261299833    0.7580160653018622    0.6926902404009895 O
   0.9193855482991976    0.7437437334749228    0.2100135594136032 O
   0.3308398800830428    0.1168607174878325    0.7851417072136113 O
   0.3347582093544019    0.1279560479943909    0.2756422126738408 O
   0.3291909379069318    0.6253189281337467    0.7777162271733822 O
   0.3327948509740816    0.6333256810494075    0.2909392179617200 O
   0.3357689902077761    0.3868845071310079    0.7925010205935541 O
   0.3370570137417999    0.3704893799797613    0.2924121490421779 O
   0.3386042764365302    0.8744507732991256    0.7828662649615664 O
   0.3348587556966636    0.8746701131094720    0.2856081155944888 O
   0.8360342443940225    0.1291517870933145    0.7868438624952770 O
   0.8378931333978381    0.1276194294585806    0.2861446187132990 O
   0.8327059768745073    0.6242115129180505    0.7823759724645251 O
   0.8352596350640789    0.6193013672853567    0.2958714860690810 O
   0.8297547180035467    0.3752012552892278    0.7807471099362517 O
   0.8308347846462487    0.3764427549191904    0.2844744293191019 O
   0.8376644383843881    0.8811588502022222    0.7882998530508217 O
   0.8318962036656015    0.8896593980232788    0.2963308750174093 O
   0.3310825586720698    0.1169176948143252    0.5373543651706918 O
   0.3286569419868524    0.1245596870750482    0.0468808693402296 O
   0.3374353760754066    0.6212429927516825    0.5544386861672991 O
   0.3311222772944094    0.6303466534493154    0.0373628643119733 O
   0.3382048949686025    0.3830946117360652    0.5463779009317893 O
   0.3348870211821822    0.3634458540111274    0.0440142729842869 O
   0.3315272727256500    0.8746551497985307    0.5479760395824074 O
   0.3372921021984471    0.8743493342898815    0.0524331575155740 O
   0.8364342548561944    0.1260318315529734    0.5509092824037285 O
   0.8370196034062274    0.1291371788504858    0.0547126921636652 O
   0.8370119863456722    0.6291845551950349    0.5512104643859210 O
   0.8347526635374877    0.6201160602574124    0.0442449770844243 O
   0.8334206742619322    0.3777523395663220    0.5512340576388240 O
   0.8288051664371447    0.3763180458559700    0.0525665371754902 O
   0.8299841758511499    0.8809731575049993    0.5510925649688662 O
   0.8323803343387003    0.8894258683423935    0.0426864214841966 O
   0.4154356986807483    0.9907523132804816    0.9577461393932878 O
   0.4180910242212946   -0.0012619206759799    0.4504846476950770 O
   0.4190106314192238    0.4940679328331414    0.9602241458435309 O
   0.4217225746020306    0.4896216793660790    0.4627267198894128 O
   0.4174121929530990    0.2555915542045943    0.9615814197960054 O
   0.4160431082466468    0.2574574704723979    0.4566572667675576 O
   0.4213186944567848    0.7604427568526954    0.9622350565748015 O
   0.4210199483925376    0.7479254180793280    0.4529910664483228 O
   0.9203248666492401    0.0176274937503302    0.9609771373000576 O
   0.9209380225661654    0.0119668185301497    0.4629683478756160 O
   0.9168611203357369    0.5022745361173329    0.9735991962302567 O
   0.9183986502261751    0.5121531149064263    0.4586438449464627 O
   0.9114294088344135    0.2452533642516201    0.9566223096819761 O
   0.9136318652648593    0.2430060896998566    0.4579448549930204 O
   0.9203872960934469    0.7526605964921163    0.9659667272749555 O
   0.9192969136108829    0.7473966311309563    0.4600432495600678 O
   0.9970501761479393    0.1165905964907850    0.8763836241045900 O
   0.9976587533127755    0.1178214274033882    0.3764584688013343 O
  -0.0009106674215862    0.6232360387626316    0.8862520377132216 O
   0.9960949977793191    0.6255461850983182    0.3832272048460326 O
   0.0013192400557778    0.3808893222477260    0.8744504861525265 O
   0.0014735948806952    0.3830681164849948    0.3745332765292111 O
   0.0024568396444518    0.8769992697645053    0.8834728831529729 O
   0.0026646930028662    0.8764509533784196    0.3839166301441825 O
   0.5051261501409430    0.1329702699218595    0.8846207458095370 O
   0.5022846072292084    0.1090069773961678    0.3788297528213840 O
   0.5051263643141232    0.6215124089398639    0.8904173067323186 O
   0.5025853639973452    0.6237728398629090    0.3860976944185335 O
   0.4962668582147149    0.3737561794162312    0.8902254548708481 O
   0.4973395552250555    0.3775052148767795    0.3773982303886271 O
   0.4999565206261822    0.8636783258269940    0.8778096619212138 O
   0.4960963588090640    0.8725951639609542    0.3870432864543830 O
   0.2534503759794675    0.0120250989555625    0.6246157651959370 O
   0.2531590002067792   -0.0001376670427143    0.1151725501554428 O
   0.2508363698614558    0.5005867241137011    0.6366123343663387 O
   0.2470279718747032    0.5141554342122949    0.1218318543047028 O
   0.2434389900440385    0.2371885301687618    0.6181113741473410 O
   0.2492644608820521    0.2531339338866610    0.1116077560482230 O
   0.2544756253160875    0.7518625037738116    0.6314676917611447 O
   0.2550239353195204    0.7396806129181999    0.1249064051911575 O
   0.7533674219340345    0.0029692966145152    0.6178397380907510 O
   0.7544691573244066    0.9952782260977616    0.1332252089837952 O
   0.7529671018764057    0.5003010380960622    0.6309692147996485 O
   0.7515858318940665    0.4939961584008767    0.1282666981818724 O
   0.7520336183730435    0.2528879694058219    0.6399456556605849 O
   0.7528126107303873    0.2581659488309028    0.1292990423121849 O
   0.7556553172919476    0.7524283928279095    0.6181016051359611 O
   0.7493522925342242    0.7645896568540977    0.1248642107019965 O
   0.1693827588095068    0.1228479328781201    0.7184539937484812 O
   0.1637069358817937    0.1254037418445101    0.2113728668218482 O
   0.1669581561183041    0.6160462647881372    0.7053441945476132 O
   0.1664363658959843    0.6201311283666509    0.2152824283929921 O
   0.1605565691103598    0.3739135791858473    0.7130046980322596 O
   0.1615376588120429    0.3745429364818015    0.2113723620063498 O
   0.1649110170643631    0.8837572502557803    0.7005395178719557 O
   0.1675081793169481    0.8701019890684398    0.2127140037766897 O
   0.6633010308557433    0.1238982643315297    0.7178205214239939 O
   0.6643613659356923    0.1250475123449636    0.2181990876773177 O
   0.6639599666694544    0.6309389285080800    0.7036503186686462 O
   0.6692669975618810    0.6242001554840350    0.2211428769921377 O
   0.6677965195608968    0.3652790365760776    0.7115613602347471 O
   0.6702954670091545    0.3716028278964976    0.2202686353759487 O
   0.6637299684405069    0.8728635483958592    0.7161329141067608 O
   0.6701038843657091    0.8760880076786147    0.2188023460626725 O
   0.0889996651406944    0.9871435757098674    0.7901689994390015 O
   0.0887058920780360    0.9977967531256170    0.3016494039363827 O
   0.0837589220969230    0.4899369776985358    0.7893266949420442 O
   0.0844430654007275    0.4878406276336971    0.2905707272491188 O
   0.0846107740373761    0.2516646128722544    0.7911431747579495 O
   0.0847755690149868    0.2559401027624690    0.2902219903586265 O
   0.0792920983164917    0.7599957229293183    0.7888644144427325 O
   0.0850554367293248    0.7488867655499490    0.2993870910561260 O
   0.5878167736578626    0.0055780173323270    0.7969904464254666 O
   0.5867147470274516    0.0067618585949727    0.2965545567381996 O
   0.5818919152992861    0.5063418629453441    0.7951385043001868 O
   0.5870706161144197    0.5015687759473904    0.3016158223452202 O
   0.5852295930855556    0.2431231648182552    0.7970108658693846 O
   0.5864923682293669    0.2409458747086315    0.2939464763771309 O
   0.5887921799717030    0.7361385366836155    0.7948754736464099 O
   0.5868320130102762    0.7537512741137545    0.3067583858924619 O
   0.0825200873044924    0.9911007797457444    0.5401023057386896 O
   0.0816219503615889    0.9990850723466532    0.0223795725196740 O
   0.0779301822669249    0.4886983161095322    0.5369166870672023 O
   0.0788261856256462    0.4879358246143302    0.0381004554698327 O
   0.0863968187034443    0.2548426891559167    0.5404170607090729 O
   0.0854456750529336    0.2585930155476097    0.0393853537335935 O
   0.0797526181387968    0.7553601866533460    0.5392555084535419 O
   0.0792876227913657    0.7470560733059426    0.0320893748464657 O
   0.5816269959371211    0.0097000083806356    0.5397801609041848 O
   0.5895690800787529    0.0078222181654720    0.0489125266858377 O
   0.5809219516640288    0.5047311677699504    0.5418296134924766 O
   0.5812508721463228    0.4960256733311106    0.0366936442060258 O
   0.5859894682921487    0.2379750840531873    0.5450131597146752 O
   0.5807530482244270    0.2372459365849184    0.0457720602359411 O
   0.5799665031790873    0.7357169089666263    0.5400664119642207 O
   0.5833974235390154    0.7466296159862849    0.0332195416665787 O
   0.1699425800824272    0.1249778943938109    0.9465604858541882 O
   0.1693958875406466    0.1237030522117719    0.4446622577601594 O
   0.1681329805539395    0.6176414880323084    0.9556239055108143 O
   0.1632830930682893    0.6233862519539077    0.4433009800849932 O
   0.1611449041079515    0.3743584808265202    0.9429084549621388 O
   0.1615776705085509    0.3744950483023956    0.4466071835284660 O
   0.1658161089410972    0.8815973872520393    0.9553919184496138 O
   0.1631370734777990    0.8716041600759626    0.4460970889143628 O
   0.6637878659069029    0.1249494478031056    0.9502133839595923 O
   0.6643174310719538    0.1235533311318165    0.4513150598629161 O
   0.6659127971629214    0.6320407883349383    0.9557887881532373 O
   0.6634831931501755    0.6275805564989879    0.4482816115727374 O
   0.6699931844359402    0.3622331229104478    0.9649210947460760 O
   0.6654712029312690    0.3755236898629254    0.4481904883401708 O
   0.6726635064930339    0.8760446196237349    0.9504428517437243 O
   0.6687206718422247    0.8759474441746786    0.4546451016117897 O
