Ga O
1.0
  24.6638679504000002   0.0000000000000000   0.0000000000000000
   0.0000000000000000  12.2378234862999999   0.0000000000000000
  -2.7408732245000000   0.0000000000000000  11.3313410758999993
Ga O
124  192  
Direct
  0.4200150070000000  0.8797230720000000  0.3398422600000000  
  0.4177840350000000  0.8754134180000001  0.8401559590000000  
  0.4165381490000000  0.3736845850000000  0.3442048730000000  
  0.4218342010000000  0.3732613330000000  0.8494896290000000  
  0.4209278230000000  0.6263916490000000  0.3415138720000000  
  0.4223378900000000  0.6272789240000000  0.8458669190000000  
  0.4195131960000000  0.1202595830000000  0.3389662800000000  
  0.4184775650000000  0.1242648960000000  0.8419010640000000  
  0.9195131060000000  0.8797403570000000  0.3389663700000000  
  0.9184776540000000  0.8757350440000000  0.8419005870000000  
  0.9209278820000000  0.3736084100000000  0.3415140210000000  
  0.9223377699999999  0.3727211360000000  0.8458675740000000  
  0.9165381790000000  0.6263152960000000  0.3442047240000000  
  0.9218343500000000  0.6267386080000000  0.8494895099999999  
  0.9200150370000000  0.1202768090000000  0.3398419920000000  
  0.9177840350000001  0.1245864630000000  0.8401557800000000  
  0.3333096210000000  0.0015736470000000  0.1563274410000000  
  0.3278020620000000  0.0015944580000000  0.6513776180000000  
  0.3300224840000000  0.4954956770000000  0.1613704120000000  
  0.3322334290000000  0.5000538830000000  0.6608680490000000  
  0.3294195830000000  0.7487967010000000  0.1593045440000000  
  0.3285470600000000  0.7475317720000000  0.6545221210000000  
  0.3303162750000000  0.2547206280000000  0.1612050830000000  
  0.3309647140000000  0.2509247060000000  0.6586459880000000  
  0.8333095310000000  0.9984262590000000  0.1563277390000000  
  0.8278018830000000  0.9984055760000000  0.6513779159999999  
  0.8300223950000000  0.5045042630000000  0.1613706950000000  
  0.8322333100000000  0.4999462370000000  0.6608684660000000  
  0.8303163649999999  0.7452793720000001  0.1612049340000000  
  0.8309647440000000  0.7490752939999999  0.6586462260000000  
  0.8294195530000000  0.2512033580000000  0.1593044850000000  
  0.8285472990000000  0.2524680500000000  0.6545215850000000  
  0.4559709730000000  0.9998430010000000  0.6073975560000000  
  0.4570073780000000  0.5008262400000000  0.1054278090000000  
  0.4561348560000000  0.5013834240000000  0.6030212640000000  
  0.4556977150000000  0.7630156280000000  0.1012614890000000  
  0.4557638170000000  0.7499547000000000  0.6016274090000000  
  0.4558264910000000  0.2362250690000000  0.1025946290000000  
  0.4541180730000000  0.2486406560000000  0.6012923720000000  
  0.0000031060000000  0.0000006880000000  0.0003029990000000  
  0.9559709430000000  0.0001570770000000  0.6073973770000000  
  0.9570074079999999  0.4991739390000000  0.1054282410000000  
  0.9561347370000000  0.4986165170000000  0.6030219790000000  
  0.9558265210000000  0.7637749310000000  0.1025941600000000  
  0.9541181330000000  0.7513592840000000  0.6012918950000000  
  0.9556975960000000  0.2369843130000000  0.1012615640000000  
  0.9557638760000000  0.2500453590000000  0.6016272310000000  
  0.2928862870000000  0.8735817670000000  0.3953189550000000  
  0.2939002810000000  0.8754186030000000  0.8976438050000000  
  0.2939599750000000  0.3754555580000000  0.8935295340000000  
  0.2946664690000000  0.6121559140000000  0.3993656340000000  
  0.2963189480000000  0.6242591140000000  0.8999772069999999  
  0.2938011880000000  0.1384547350000000  0.3977608680000000  
  0.2937649190000000  0.1251798870000000  0.8982206579999999  
  0.7938010690000000  0.8615453239999999  0.3977612260000000  
  0.7937649490000001  0.8748201730000000  0.8982207780000000  
  0.7946665880000000  0.3878443240000000  0.3993656930000000  
  0.7963189480000000  0.3757408260000000  0.8999770880000000  
  0.7939599750000000  0.6245443820000000  0.8935297730000000  
  0.7928863760000000  0.1264180540000000  0.3953184780000000  
  0.7939003110000000  0.1245814560000000  0.8976440430000000  
  0.1721989210000000  0.0015945310000000  0.3492516580000000  
  0.1666865350000000  0.0015766670000000  0.8442943100000000  
  0.1677725020000000  0.5000543589999999  0.3397416470000000  
  0.1699748190000000  0.4954918620000000  0.8392465110000000  
  0.1714541470000000  0.7475297450000000  0.3461123700000000  
  0.1705779280000000  0.7487902050000000  0.8413162830000001  
  0.1690372380000000  0.2509244680000000  0.3419722320000000  
  0.1696840230000000  0.2547199730000000  0.8394057150000001  
  0.6721987130000000  0.9984053970000000  0.3492518960000000  
  0.6666864750000000  0.9984234570000000  0.8442946080000000  
  0.6677724120000000  0.4999455810000000  0.3397420640000000  
  0.6699746850000000  0.5045081380000001  0.8392468090000000  
  0.6690372230000000  0.7490755320000000  0.3419724700000000  
  0.6696841120000000  0.7452800270000000  0.8394055370000000  
  0.6714544300000000  0.2524703740000000  0.3461118940000000  
  0.6705778840000000  0.2512097950000000  0.8413162230000000  
  0.0822188930000000  0.8754174110000000  0.1604579540000000  
  0.0799832790000000  0.8797217610000000  0.6607774500000000  
  0.0781675130000000  0.3732602600000000  0.1511256990000000  
  0.0834599060000000  0.3736832140000000  0.6564098000000000  
  0.0776643230000000  0.6272830370000000  0.1547583940000000  
  0.0790714100000000  0.6263908740000000  0.6591076250000000  
  0.0815260710000000  0.1242665650000000  0.1587101820000000  
  0.0804854110000000  0.1202606560000000  0.6616397500000000  
  0.5815261010000000  0.8757333760000000  0.1587096600000000  
  0.5804853440000000  0.8797393440000000  0.6616398100000001  
  0.5776642560000000  0.3727169040000000  0.1547590940000000  
  0.5790714620000000  0.3736090060000000  0.6591078040000000  
  0.5781676170000000  0.6267397400000000  0.1511255500000000  
  0.5834599730000000  0.6263169050000000  0.6564096210000000  
  0.5822188850000000  0.1245827670000000  0.1604578050000000  
  0.5799834130000000  0.1202782990000000  0.6607771520000000  
  0.2060953380000000  0.8754184840000000  0.1029774620000000  
  0.2071147110000000  0.8735781910000000  0.6053105590000000  
  0.2060406210000000  0.3754572870000000  0.1070802810000000  
  0.2500026520000000  0.3766626720000000  0.5003038050000000  
  0.2036786080000000  0.6242663860000000  0.1006395970000000  
  0.2053355870000000  0.6121486430000000  0.6012611390000000  
  0.2062327410000000  0.1251786350000000  0.1023936940000000  
  0.2062009870000000  0.1384546760000000  0.6028560400000000  
  0.7062327269999999  0.8748213050000000  0.1023937760000000  
  0.7062008980000000  0.8615452050000000  0.6028563380000000  
  0.7036786080000000  0.3757336140000000  0.1006394920000000  
  0.7053356770000000  0.3878511790000000  0.6012611990000000  
  0.7060406210000000  0.6245428320000000  0.1070805040000000  
  0.7500026230000000  0.6233373880000000  0.5003041630000000  
  0.7060953380000000  0.1245815160000000  0.1029776190000000  
  0.7071147560000000  0.1264219880000000  0.6053102020000000  
  0.0440303420000000  0.9998405580000000  0.3932151500000000  
  0.0438690450000000  0.5013843770000000  0.3975984750000000  
  0.0429938620000000  0.5008231400000001  0.8951988820000000  
  0.0442326520000000  0.7499536280000000  0.3989845220000000  
  0.0443017630000000  0.7630132440000000  0.8993542190000000  
  0.0458781310000000  0.2486385700000000  0.3993113040000000  
  0.0441777110000000  0.2362243530000000  0.8980172279999999  
  0.5440303090000000  0.0001593600000000  0.3932150300000000  
  0.5000030990000000  0.9999993440000000  0.0003029860000000  
  0.5438689590000000  0.4986156820000000  0.3975991610000000  
  0.5429939030000001  0.4991766810000000  0.8951992989999999  
  0.5458781720000000  0.7513614300000000  0.3993107970000000  
  0.5441777710000000  0.7637757060000000  0.8980166910000000  
  0.5442326660000000  0.2500463720000000  0.3989844320000000  
  0.5443016890000000  0.2369868160000000  0.8993542790000000  
  0.2528965770000000  0.0041174950000000  0.3747292460000000  
  0.2502697710000000  0.9998647570000000  0.8717746140000000  
  0.2479330450000000  0.4951658840000000  0.3784473840000000  
  0.2518990640000000  0.5018017290000000  0.8699996470000000  
  0.2522405090000000  0.7435370680000000  0.3738903400000000  
  0.2523135540000000  0.7482213970000000  0.8729097250000000  
  0.2483712580000000  0.2578397990000000  0.3787135180000000  
  0.2515166400000000  0.2504385710000000  0.8704032300000000  
  0.7528964280000000  0.9958825710000000  0.3747288580000000  
  0.7502697710000000  0.0001352660000000  0.8717746140000000  
  0.7479329710000000  0.5048341160000001  0.3784478010000000  
  0.7518990040000000  0.4981983300000000  0.8700001840000000  
  0.7483713030000000  0.7421600820000001  0.3787135780000000  
  0.7515167000000000  0.7495614290000000  0.8704031710000000  
  0.7522407770000000  0.2564629320000000  0.3738903110000000  
  0.7523135540000000  0.2517786030000000  0.8729095460000000  
  0.0024848800000000  0.8810325860000000  0.1217948500000000  
  0.9982017870000000  0.8742828370000000  0.6309856770000000  
  0.9976435299999999  0.3692493440000000  0.1261964290000000  
  0.9999120240000000  0.3741910460000000  0.6286231880000001  
  0.9969472290000000  0.6300003530000000  0.1263350990000000  
  0.9973924760000000  0.6261590120000000  0.6278476720000000  
  0.0015670860000000  0.1184611920000000  0.1222648700000000  
  0.9984360930000000  0.1254408360000000  0.6299249530000000  
  0.5015671250000000  0.8815388680000000  0.1222650480000000  
  0.4984360930000000  0.8745591640000000  0.6299253700000000  
  0.4969470800000000  0.3699996470000000  0.1263349060000000  
  0.4973925050000000  0.3738409280000000  0.6278477310000000  
  0.4976436500000000  0.6307506560000000  0.1261965780000000  
  0.4999120240000000  0.6258089540000000  0.6286228900000000  
  0.5024848580000000  0.1189675330000000  0.1217946560000000  
  0.4982018470000000  0.1257172820000000  0.6309854980000000  
  0.4112143810000000  0.9990799430000000  0.2272207740000000  
  0.4100284580000000  0.9987757210000000  0.7128188610000000  
  0.4158500430000000  0.5050920840000001  0.2195872960000000  
  0.4162501100000000  0.5013594030000000  0.7219207290000000  
  0.4136480090000000  0.7512956860000000  0.2171060000000000  
  0.4129583540000000  0.7500017879999999  0.7166249160000000  
  0.4150258000000000  0.2447837000000000  0.2178090810000000  
  0.4137938020000000  0.2497955560000000  0.7194404010000000  
  0.9112144110000000  0.0009198980000000  0.2272207140000000  
  0.9100284580000000  0.0012242240000000  0.7128186230000000  
  0.9158500429999999  0.4949079750000000  0.2195875640000000  
  0.9162501100000000  0.4986407760000000  0.7219213249999999  
  0.9150258300000000  0.7552162410000000  0.2178088870000000  
  0.9137938620000000  0.7502044440000000  0.7194401030000001  
  0.9136479500000000  0.2487043740000000  0.2171060000000000  
  0.9129583240000000  0.2499981520000000  0.7166246770000000  
  0.3343599440000000  0.8693867920000000  0.2816187740000000  
  0.3340312240000000  0.8738266230000000  0.7789787050000000  
  0.3386568130000000  0.3760547640000000  0.2733930050000000  
  0.3397909100000000  0.3769232630000000  0.7879057530000000  
  0.3367016610000000  0.6238679890000000  0.2837269310000000  
  0.3379680810000000  0.6249504090000000  0.7837597130000000  
  0.3345016240000000  0.1296864750000000  0.2822296020000000  
  0.3351892830000000  0.1245038510000000  0.7813107969999999  
  0.8345015649999999  0.8703136440000000  0.2822297510000000  
  0.8351892829999999  0.8754961489999999  0.7813107969999999  
  0.8367016910000000  0.3761321310000000  0.2837269900000000  
  0.8379681110000000  0.3750496510000000  0.7837598320000000  
  0.8386568430000000  0.6239452360000000  0.2733931240000000  
  0.8397908810000000  0.6230767970000000  0.7879059910000000  
  0.8343599440000000  0.1306131480000000  0.2816185650000000  
  0.8340312240000000  0.1261731390000000  0.7789785860000000  
  0.3311286270000000  0.8734451530000000  0.0539214760000000  
  0.3299920860000000  0.8732752800000000  0.5525823240000000  
  0.3322115840000000  0.3763829470000000  0.0490246080000000  
  0.3310251530000000  0.3763964770000000  0.5577089190000000  
  0.3323412840000000  0.6231256720000000  0.0572257600000000  
  0.3364019990000000  0.6247260569999999  0.5539698000000000  
  0.3310825820000000  0.1276829240000000  0.0543025810000000  
  0.3344212170000000  0.1261919740000000  0.5527529720000000  
  0.8310825820000000  0.8723170760000000  0.0543026510000000  
  0.8344212170000000  0.8738081460000000  0.5527531500000000  
  0.8323412540000000  0.3768744470000000  0.0572258050000000  
  0.8364020590000000  0.3752741220000000  0.5539699200000000  
  0.8322116140000000  0.6236169340000000  0.0490248130000000  
  0.8310251239999999  0.6236034630000000  0.5577091570000000  
  0.8311286570000000  0.1265547870000000  0.0539216060000000  
  0.8299920560000000  0.1267244820000000  0.5525820259999999  
  0.4178045690000000  0.9992228150000000  0.4517658050000000  
  0.4189614950000000  0.9996265770000000  0.9432650800000000  
  0.4189701970000000  0.5019334550000000  0.4467794900000000  
  0.4200387900000000  0.5015572310000000  0.9481338260000000  
  0.4186203480000000  0.7516508100000000  0.4444321100000000  
  0.4139802750000000  0.7499589920000000  0.9465436340000000  
  0.4178897440000000  0.2469503280000000  0.4451060300000000  
  0.4150882070000000  0.2486724260000000  0.9478071930000000  
  0.9178045390000000  0.0007772850000000  0.4517656860000000  
  0.9189615249999999  0.0003732840000000  0.9432649020000000  
  0.9189702870000001  0.4980665450000000  0.4467799070000000  
  0.9200388190000000  0.4984430070000000  0.9481342430000000  
  0.9178897140000000  0.7530496719999999  0.4451057910000000  
  0.9150882360000000  0.7513275740000001  0.9478068950000000  
  0.9186203480000000  0.2483491300000000  0.4444319610000000  
  0.9139801860000000  0.2500407700000000  0.9465435150000000  
  0.0015619430000000  0.8745582700000000  0.3706631360000000  
  0.9984367490000000  0.8815433980000000  0.8783404230000000  
  0.0026069620000000  0.3738442660000000  0.3727642000000000  
  0.0030546440000000  0.3699964280000000  0.8742854600000000  
  0.0000869330000000  0.6258062120000000  0.3720003660000000  
  0.0023578500000000  0.6307456490000000  0.8744341730000000  
  0.0017970070000000  0.1257156730000000  0.3696200550000000  
  0.9975181220000000  0.1189712290000000  0.8788161870000000  
  0.5017970200000000  0.8742842669999999  0.3696203830000000  
  0.4975180920000000  0.8810286520000000  0.8788163660000000  
  0.5000869040000000  0.3741937880000000  0.3720006350000000  
  0.5023577210000000  0.3692543510000000  0.8744339940000000  
  0.5026069280000000  0.6261558530000000  0.3727641110000000  
  0.5030547980000000  0.6300035720000000  0.8742856980000000  
  0.5015619990000000  0.1254417300000000  0.3706627190000000  
  0.4984366600000000  0.1184566020000000  0.8783401850000000  
  0.2497268920000000  0.9998621940000000  0.1288351710000000  
  0.2471030210000000  0.0041149170000000  0.6258925200000000  
  0.2480984180000000  0.5018086430000001  0.1306097360000000  
  0.2520699200000000  0.4951602820000000  0.6221576930000000  
  0.2476837040000000  0.7482249740000000  0.1277262270000000  
  0.2477602810000000  0.7435327770000000  0.6267374750000000  
  0.2484828680000000  0.2504390480000000  0.1301852910000000  
  0.2516301570000000  0.2578379510000000  0.6218869690000000  
  0.7497268920000000  0.0001378090000000  0.1288350970000000  
  0.7471028570000000  0.9958850740000000  0.6258921030000000  
  0.7480983730000000  0.4981913570000000  0.1306102420000000  
  0.7520698310000000  0.5048397780000000  0.6221581100000000  
  0.7484828830000000  0.7495609519999999  0.1301852460000000  
  0.7516301869999999  0.7421621080000000  0.6218870280000000  
  0.7476837039999999  0.2517750260000000  0.1277259890000000  
  0.7477603550000000  0.2564670440000000  0.6267374160000000  
  0.1659668680000000  0.8738248350000000  0.2216465770000000  
  0.1656393710000000  0.8693808320000000  0.7190083860000001  
  0.1602127550000000  0.3769203420000000  0.2127083990000000  
  0.1613405050000000  0.3760561350000000  0.7272190450000000  
  0.1620379090000000  0.6249527930000000  0.2168737350000000  
  0.1632967590000000  0.6238668560000000  0.7168909310000000  
  0.1648120430000000  0.1245025400000000  0.2193110290000000  
  0.1654980780000000  0.1296884420000000  0.7183881400000000  
  0.6648120280000001  0.8754974599999999  0.2193110140000000  
  0.6654980180000000  0.8703114390000000  0.7183882590000000  
  0.6620379690000000  0.3750471470000000  0.2168738690000000  
  0.6632968190000000  0.3761330840000000  0.7168909910000000  
  0.6602127550000000  0.6230795980000000  0.2127086220000000  
  0.6613405350000000  0.6239438060000000  0.7272191050000000  
  0.6659668090000000  0.1261753440000000  0.2216464580000000  
  0.6656394600000000  0.1306191680000000  0.7190081480000000  
  0.0899747460000000  0.9987721440000000  0.2877965270000000  
  0.0887827720000000  0.9990859630000000  0.7733922600000001  
  0.0837500840000000  0.5013573170000000  0.2786970440000000  
  0.0841472520000000  0.5050928590000000  0.7810337540000000  
  0.0870395820000000  0.7499968410000000  0.2839900260000000  
  0.0863509850000000  0.7512927650000000  0.7835155730000000  
  0.0862053330000000  0.2497967480000000  0.2811644670000000  
  0.0849722770000000  0.2447830440000000  0.7827953100000000  
  0.5899747010000000  0.0012279180000000  0.2877964080000000  
  0.5887827870000000  0.0009141230000000  0.7733922000000000  
  0.5837500690000000  0.4986425040000000  0.2786976700000000  
  0.5841472740000000  0.4949070810000000  0.7810339930000000  
  0.5862054230000000  0.7502032520000000  0.2811641990000000  
  0.5849723220000000  0.7552170160000000  0.7827950720000000  
  0.5870395899999999  0.2500032780000000  0.2839898770000000  
  0.5863509770000001  0.2487072350000000  0.7835155730000000  
  0.0810443310000000  0.9996289610000000  0.0573436840000000  
  0.0821936430000000  0.9992236500000000  0.5488490460000000  
  0.0799607780000000  0.5015531180000000  0.0524937060000000  
  0.0810291540000000  0.5019363760000000  0.5538430210000000  
  0.0860229810000000  0.7499549390000000  0.0540726890000000  
  0.0813724620000000  0.7516547440000000  0.5561832790000000  
  0.0849178810000000  0.2486713530000000  0.0528042090000000  
  0.0821062400000000  0.2469509840000000  0.5554975870000000  
  0.5810443760000000  0.0003711530000000  0.0573434940000000  
  0.5821936130000001  0.0007762630000000  0.5488489270000000  
  0.5799608230000000  0.4984467030000000  0.0524941350000000  
  0.5810292360000000  0.4980635640000000  0.5538434390000000  
  0.5849179030000000  0.7513285880000000  0.0528038670000000  
  0.5821061730000000  0.7530491350000000  0.5554972889999999  
  0.5860229130000000  0.2500453000000000  0.0540726560000000  
  0.5813724990000000  0.2483453150000000  0.5561831590000000  
  0.1700054410000000  0.8732749220000000  0.4480452840000000  
  0.1688690780000000  0.8734456900000001  0.9466969970000000  
  0.1689784970000000  0.3764015440000000  0.4428991380000000  
  0.1677888180000000  0.3763797880000000  0.9515882730000000  
  0.1635988650000000  0.6247231960000000  0.4466550350000000  
  0.1676533370000000  0.6231169700000000  0.9433953760000000  
  0.1655762940000000  0.1261932850000000  0.4478696290000000  
  0.1689120530000000  0.1276848910000000  0.9463147520000000  
  0.6655762200000001  0.8738066550000000  0.4478697780000000  
  0.6689120530000000  0.8723150490000000  0.9463147520000000  
  0.6635989550000000  0.3752765060000000  0.4466551240000000  
  0.6676533220000000  0.3768830300000000  0.9433953760000000  
  0.6689784530000000  0.6235985760000000  0.4428994060000000  
  0.6677888040000000  0.6236203910000000  0.9515884520000000  
  0.6700053810000000  0.1267253160000000  0.4480449860000000  
  0.6688690780000000  0.1265543700000000  0.9466970560000000  
