Ga32 O48
   1.00000000000000
    24.6638679504000002    0.0000000000000000    0.0000000000000000
     0.0000000000000000   12.2378234862999999    0.0000000000000000
    -2.7408732245000000    0.0000000000000000   11.3313410758999993
   Ga   O
   127   192
Direct
  0.4213416886469121  0.1265804126068318  0.3415929888646317
  0.4220656675447761  0.1265478955386970  0.8457510881622762
  0.4203276416145723  0.6201422761744368  0.3405183603942306
  0.4189623754132862  0.6250374300845236  0.8413749411453887
  0.4203277116374867  0.3798576642416674  0.3405182720624848
  0.4189624053902705  0.3749626753893855  0.8413744946694831
  0.4213416351186878  0.8734196738272442  0.3415929671965029
  0.4220659243980111  0.8734520069541205  0.8457505514246072
  0.9203894042444739  0.1250314606730147  0.3430349460678886
  0.9205039470376617  0.1249900641631373  0.8432961256275839
  0.9202455061591283  0.6249164540171117  0.3430165606889089
  0.9199808962885042  0.6249118879638593  0.8434988476960724
  0.9202455101551344  0.3750835643736021  0.3430167226425918
  0.9199808289983068  0.3750880928588246  0.8434990593887199
  0.9203893648897885  0.8749685163046601  0.3430348248084970
  0.9205039485436778  0.8750099381560210  0.8432961128439243
  0.3298507154187562  0.0000000304851071  0.1582192101905526
  0.3302960632343542  0.0000000000970874  0.6592148043626903
  0.3348799012042642  0.4999999197219168  0.1550381204777401
  0.3294792991345913  0.4999999615147018  0.6535991393637578
  0.3303638394676352  0.2502225314148012  0.1578262642865195
  0.3294735526138433  0.2492436994433922  0.6569961366285068
  0.3303637641110808  0.7497774709477116  0.1578265051171792
  0.3294735425556133  0.7507563169869405  0.6569972744678546
  0.8291461793753828 -0.0000000208721352  0.1571247112348231
  0.8294161473504662  0.0000000751169530  0.6572524616234501
  0.8289346053484876  0.5000000917166528  0.1562771918764418
  0.8291106159902578  0.4999999389187904  0.6571696228874139
  0.8291208787827623  0.2501575185888268  0.1564152249226040
  0.8294425320278108  0.2498316682196739  0.6570860227466284
  0.8291208710727295  0.7498423877730144  0.1564147915363498
  0.8294425864185789  0.7501683245818987  0.6570859979866503
  0.4560685101508664 -0.0000000693161100  0.1029687890325762
  0.4542912379543970  0.0000000435091129  0.6010669831740549
  0.4565473950548182  0.4999999988941101  0.6072812533820562
  0.4555072232972221  0.2618848009330614  0.1004371078833186
  0.4543250942983083  0.2507158369473869  0.6005101398933109
  0.4555072870759031  0.7381153321184400  0.1004375004799739
  0.4543250633419034  0.7492841578688857  0.6005098671225199
  0.9547709279210839 -0.0000000056140146  0.1028613218736510
  0.9548381224936765  0.0000000204359220  0.6027218140021370
  0.9550332227027812  0.5000000215521406  0.1030467738614059
  0.9547187342068350  0.4999999871325198  0.6029204713230668
  0.9548927455261426  0.2501882467626781  0.1028060780245417
  0.9547826338684086  0.2501462298958836  0.6027267665289392
  0.9548927764411719  0.7498117113897491  0.1028058870411069
  0.9547826584203707  0.7498537581407035  0.6027265664660212
  0.2954932225920311  0.1246860852841981  0.3974127495559869
  0.2957393818751612  0.1249478090501422  0.8980242684661047
  0.2948245277002886  0.6259069600137119  0.3957756047304689
  0.2953719733562615  0.6253710267579272  0.8970110023760555
  0.2948244788735461  0.3740932183624169  0.3957747907308785
  0.2953720411710554  0.3746289096777171  0.8970105071818204
  0.2954932769963410  0.8753139271608389  0.3974132910417754
  0.2957394280327480  0.8750522286807639  0.8980244858343922
  0.7953937616437764  0.1244659953905990  0.3985209864899518
  0.7952823185084450  0.1250286771828168  0.8983396850094937
  0.7949691061731425  0.6253058449501949  0.3983100840168979
  0.7932868119614847  0.6240021626757691  0.8972325303209400
  0.7949691150155519  0.3746941649289504  0.3983099967720962
  0.7932868408566816  0.3759978118340502  0.8972332520808454
  0.7953937258474094  0.8755338588639504  0.3985212139525677
  0.7952823081250837  0.8749712903923329  0.8983395889919665
  0.1705835463150504 -0.0000000598266259  0.3433731116113478
  0.1708545325723173  0.0000000239981902  0.8434941037566942
  0.1708916148797578  0.5000000292031600  0.3434664652283277
  0.1710653785321137  0.4999998972347550  0.8443619818557841
  0.1705576117530195  0.2498302478656086  0.3435462708150581
  0.1708786625240174  0.2501618485244172  0.8442170937397480
  0.1705576413351808  0.7501697595789510  0.3435462357917284
  0.1708786503847010  0.7498382239855146  0.8442166430888707
  0.6697056575665450 -0.0000000286683460  0.3414053377429055
  0.6701499722573825 -0.0000000304137872  0.8424041239394816
  0.6705228504197535  0.5000001083533342  0.3470338638065787
  0.6651122477308538  0.5000000593397887  0.8455943376784708
  0.6705275400797617  0.2492473968258988  0.3436327479528223
  0.6696357307220618  0.2502258806493372  0.8428076486433992
  0.6705274910875384  0.7507525724079662  0.3436338207225164
  0.6696356646653975  0.7497741285027346  0.8428079349056956
  0.0794937864764205  0.1249902598211213  0.1573309924711781
  0.0796084570126833  0.1250305185653122  0.6575906160170154
  0.0800192127831798  0.6249115325364850  0.1571270540963839
  0.0797511315180957  0.6249154028650342  0.6576125326810472
  0.0800191646077071  0.3750884569916649  0.1571272785519762
  0.0797511421939844  0.3750845710755406  0.6576127104729507
  0.0794937881070407  0.8750097260378454  0.1573309770527531
  0.0796084153274121  0.8749695008501333  0.6575904800466619
  0.5779359223611014  0.1265499752737705  0.1548729782782912
  0.5786629290101990  0.1265810746168054  0.6590294809986854
  0.5810391299444847  0.6250358356300395  0.1592432886330457
  0.5796732221402047  0.6201474077100757  0.6600982085465341
  0.5810391475330762  0.3749640999119006  0.1592428562641361
  0.5796733129620554  0.3798526546344014  0.6600981383403877
  0.5779360706645221  0.8734502489527922  0.1548723777881022
  0.5786628626838429  0.8734188506220394  0.6590294441054810
  0.2047181421627218  0.1250257815393911  0.1022831110209459
  0.2046065517681002  0.1244655585763895  0.6021034823257729
  0.2067109428530916  0.6240057804464830  0.1034002111622798
  0.2050335536998115  0.6253067073246895  0.6023255021497462
  0.2067110039785734  0.3759941426924236  0.1034009473596320
  0.2050335597882987  0.3746932812763275  0.6023254448025871
  0.2047181367295307  0.8749742158908503  0.1022829818876441
  0.2046065793468977  0.8755344423438794  0.6021037533063703
  0.7042592363837432  0.1249412867989006  0.1025953283244433
  0.7045089620369425  0.1246848744893304  0.6032074923534344
  0.7046301322190166  0.6253775527002237  0.1036200905703724
  0.7051766230141047  0.6259061208182611  0.6048628466620877
  0.7046301771589671  0.3746225319061330  0.1036196141046164
  0.7051765428407730  0.3740938143979697  0.6048619538828567
  0.7042592564604209  0.8750586861470163  0.1025955944468458
  0.7045090101681620  0.8753151913289172  0.6032079990673924
  0.0451563099763206 -0.0000000254073557  0.3978973087799272
  0.0452246462088969 -0.0000000090670605  0.8977569394452154
  0.0452760895276545  0.5000000103656792  0.3976999705768489
  0.0449640891773079  0.4999999702266896  0.8975773169293689
  0.0452126719993494  0.2501473111141691  0.3978945409201168
  0.0451027176261064  0.2501866879189944  0.8978173684220337
  0.0452126978914345  0.7498526908544834  0.3978943223354104
  0.0451027517898933  0.7498133417572000  0.8978171665558523
  0.5457109998148956 -0.0000000432544013  0.3995512280847812
  0.5439364155727423  0.0000000949679361  0.8976465793865441
  0.5434584047809222  0.5000000301338817  0.3933406703655202
  0.5000026481882933  0.5000000029514902  0.0003027014331616
  0.5456741227127228  0.2507168268599712  0.4001090079195766
  0.5444932201709524  0.2618838050174062  0.9001891624955933
  0.5456740953347377  0.7492831998942313  0.4001087241097329
  0.5444932995778945  0.7381160106130270  0.9001895834467017
  0.2511839235325957 -0.0000000470576142  0.3723363260482091
  0.2514266708732082 -0.0000000239821837  0.8721981307303028
  0.2512589301419673  0.5000001297949359  0.3730393720914562
  0.2514814169703287  0.4999999672983637  0.8715772063959608
  0.2507838523633589  0.2485567249080043  0.3728091743236133
  0.2513083827918567  0.2493381073084216  0.8717938336195161
  0.2507838585588765  0.7514434001494911  0.3728096807360181
  0.2513084002448970  0.7506619277898022  0.8717941263519060
  0.7522242674241383 -0.0000000198270531  0.3732808519039856
  0.7525906606646180 -0.0000000442444276  0.8724403826597116
  0.7525262850436670  0.4999999851021484  0.3736465796434683
  0.7500112540466636  0.4999999859637818  0.8721840893144802
  0.7525850721202715  0.2490980340406396  0.3731814744038925
  0.7522111401865478  0.2490247359803138  0.8730580281138360
  0.7525850032169593  0.7509019391376467  0.3731816369034355
  0.7522110980213429  0.7509752344084608  0.8730581840216916
  0.9981803498764024  0.1250395035056777  0.1281078302922724
  0.9982211433548249  0.1251453124998897  0.6280544587992182
  0.9984361863991346  0.6249958172336941  0.1282236166677203
  0.9982634197238194  0.6248877974433189  0.6280780247264326
  0.9984361465452714  0.3750041626428989  0.1282236349966533
  0.9982634120165669  0.3751121701511705  0.6280780410899498
  0.9981803459326594  0.8749604864338039  0.1281077927752523
  0.9982211255153590  0.8748547141504106  0.6280543890080011
  0.4971488982682447  0.1289507907223717  0.1265595684541072
  0.4975264796911633  0.1249972158054252  0.6268482559689452
  0.5015445491672637  0.6200030372015312  0.1217013226566511
  0.4983939776632620  0.6265439265047621  0.6287730866265342
  0.5015445736677581  0.3799969510215017  0.1217009033694028
  0.4983940293453912  0.3734560762207142  0.6287725909081282
  0.4971490461551840  0.8710492550451978  0.1265598748518058
  0.4975264319336428  0.8750028284868074  0.6268482099614059
  0.4138339002883004 -0.0000000159372290  0.2184835680723521
  0.4138845781439138 -0.0000000702225073  0.7193377996375083
  0.4120538169430319  0.5000000279435884  0.2280889414233534
  0.4105753806382164  0.4999999830233455  0.7127362446028330
  0.4136115773445141  0.2496953509936243  0.2171038555765919
  0.4124466623402575  0.2487043819890531  0.7167219234736273
  0.4136115288739478  0.7503047350662886  0.2171039972436495
  0.4124467794446636  0.7512956585130796  0.7167221955978836
  0.9139076017258352  0.0000000031913158  0.2194798798628733
  0.9140685105260354  0.0000000108663302  0.7195861039601623
  0.9136320380223087  0.5000000218289798  0.2190083659815738
  0.9136425633534040  0.4999999825153476  0.7194463775066356
  0.9137226687898277  0.2502923429793932  0.2190811814362666
  0.9138273524182550  0.2502973704844987  0.7194311040293436
  0.9137226434689193  0.7497076123003314  0.2190809367833324
  0.9138273840147103  0.7497026294234898  0.7194309753333610
  0.3361204453614356  0.1238600830373428  0.2810155647651465
  0.3359546200516353  0.1239471145785952  0.7807877115317330
  0.3344725629699024  0.6298675782043159  0.2800530331815190
  0.3345006058329973  0.6257747681745550  0.7782654735246254
  0.3344725831715422  0.3701324130795148  0.2800527234737760
  0.3345006535145083  0.3742253289150024  0.7782650481068294
  0.3361203770822068  0.8761400006443990  0.2810157464431317
  0.3359546351979813  0.8760528565865300  0.7807879817630655
  0.8369804924482368  0.1247812906647058  0.2819567705352100
  0.8371438760806497  0.1248302444699059  0.7820824812382995
  0.8367583553102191  0.6251068102900089  0.2818441715128745
  0.8364248455407269  0.6248496230952311  0.7823215949665289
  0.8367583918503694  0.3748931919489556  0.2818442876418019
  0.8364248231140398  0.3751503807793644  0.7823219027979871
  0.8369804598824747  0.8752187038649469  0.2819568239835855
  0.8371438997951939  0.8751697281428100  0.7820824703765068
  0.3315007746079968  0.1241220559928141  0.0549166497672468
  0.3321873201679477  0.1240389982277677  0.5541636621450833
  0.3314366986708447  0.6265964919674123  0.0529773044921832
  0.3305221100705459  0.6267789158438437  0.5526959445459163
  0.3314366968619464  0.3734035709251274  0.0529768990697121
  0.3305221145706412  0.3732212515169878  0.5526954059963364
  0.3315007400512499  0.8758779391673640  0.0549168903063355
  0.3321873199562916  0.8759608438965411  0.5541640901256821
  0.8341941332471517  0.1248018458820333  0.0549404611191525
  0.8345485960591349  0.1246076450405508  0.5548945636629024
  0.8332442301801481  0.6248591558419364  0.0538468414514952
  0.8340878573401836  0.6251466019167073  0.5548397537408585
  0.8332442874761807  0.3751407834036448  0.0538472595960758
  0.8340878308817630  0.3748533740724122  0.5548397603048242
  0.8341941304307500  0.8751981827971924  0.0549403632444996
  0.8345486233756507  0.8753923830594008  0.5548946982854802
  0.4166411331669637  0.0000000432244797  0.4441643969129238
  0.4175129302789887 -0.0000001730522953  0.9458134834027979
  0.4163367637874267  0.4999999653367634  0.4522964605093709
  0.4188801635299640  0.4999999165912449  0.9422314817382024
  0.4163343350494580  0.2507773235276329  0.4437846760395847
  0.4131371166628308  0.2490128171107589  0.9457195825299144
  0.4163342474493124  0.7492227334279178  0.4437846111086273
  0.4131372644150482  0.7509874318357909  0.9457198667733454
  0.9174125627033480 -0.0000000107905502  0.4460736477888908
  0.9173964611742019 -0.0000000002322626  0.9462234869557764
  0.9172981083086931  0.5000000276768304  0.4461160545994018
  0.9174094631017577  0.5000000545277368  0.9464963578110497
  0.9173102548106186  0.2500456549518823  0.4460146773138372
  0.9173686787881712  0.2499455170074695  0.9462244294740880
  0.9173102296910292  0.7499543246752138  0.4460145630490172
  0.9173686587737422  0.7500544108928658  0.9462242756483256
  0.0017740083243605  0.1251469402679265  0.3725318562501548
  0.0018152516743023  0.1250393591518695  0.8724760301144028
  0.0017316121796885  0.6248881042279580  0.3725082079544597
  0.0015620766279755  0.6249955982035517  0.8723579707060137
  0.0017316048539550  0.3751119163360375  0.3725082319502047
  0.0015620283974110  0.3750044028800718  0.8723579870271273
  0.0017739963595346  0.8748530244724089  0.3725317849904630
  0.0018152443105602  0.8749606284146555  0.8724759924462064
  0.5024761551340410  0.1249976878544985  0.3737630531856428
  0.5028539944562449  0.1289459007929153  0.8740545661841590
  0.5016079980862832  0.6265401393630680  0.3718325399492306
  0.4984574743718169  0.6200016401083863  0.8789010924825974
  0.5016080561471423  0.3734598774411526  0.3718320392700352
  0.4984574947193470  0.3799983527035736  0.8789006623962783
  0.5024760921141735  0.8750023078126008  0.3737629862164160
  0.5028542014434434  0.8710540284002836  0.8740548853800441
  0.2474109298395500 -0.0000000053572013  0.1281803257861602
  0.2477799578887818  0.0000000230534378  0.6273446969895314
  0.2499817637833760  0.5000000100687266  0.1284302097952989
  0.2474777204968819  0.4999999941331476  0.6270023178023287
  0.2477871952434227  0.2490203708850608  0.1275764149814467
  0.2474178795885755  0.2490950222939103  0.6274475023429338
  0.2477871387275512  0.7509795327021339  0.1275765437748825
  0.2474178561473021  0.7509049482579125  0.6274479315751457
  0.7485737329903916  0.0000000189812343  0.1284121709700690
  0.7488176458910020  0.0000000383414675  0.6282823058072382
  0.7485165110538370  0.5000000273598284  0.1290674554284996
  0.7487446712198991  0.4999999475622182  0.6275972818648295
  0.7486920901575769  0.2493271614891671  0.1288130783001070
  0.7492181516585361  0.2485580545146918  0.6278184562712501
  0.7486921112483735  0.7506728435830623  0.1288133420149666
  0.7492181954158064  0.7514419619071628  0.6278189790074751
  0.1628560264046343  0.1248301102743932  0.2185463560656851
  0.1630176827895473  0.1247806935759444  0.7186646904592241
  0.1635764232893163  0.6248452554594854  0.2183197226778440
  0.1632388871111568  0.6251054472641430  0.7187801498240701
  0.1635764142073342  0.3751547072955579  0.2183199870442314
  0.1632389294201251  0.3748945482629035  0.7187802621413494
  0.1628560615669243  0.8751698779163487  0.2185463357225499
  0.1630176552320538  0.8752192996824166  0.7186647102253846
  0.6640473934847415  0.1239431844628109  0.2198310180235790
  0.6638833992211237  0.1238608287451699  0.7196073085863973
  0.6654996828017635  0.6257737360238401  0.2223656649241587
  0.6655290725768711  0.6298707320534251  0.7205852232679343
  0.6654996631440542  0.3742262380321206  0.2223650846585964
  0.6655291323254743  0.3701292978017223  0.7205847924463492
  0.6640473899749247  0.8760568831874610  0.2198312599140944
  0.6638833415706711  0.8761390788156856  0.7196074962682231
  0.0859258614040194 -0.0000000272308651  0.2810292555389497
  0.0860899960366999 -0.0000000090471369  0.7811357547795724
  0.0863549272391499  0.5000000074084141  0.2811780960154444
  0.0863660621813398  0.4999999660163295  0.7816190911009141
  0.0861712444685346  0.2503005155011110  0.2811906034908338
  0.0862757727577578  0.2502874315836762  0.7815437899947569
  0.0861712822670184  0.7496994699083244  0.2811904703791912
  0.0862757480992188  0.7497126013917212  0.7815435372074784
  0.5861143443743058  0.0000000736746273  0.2812759165175786
  0.5861681714050230  0.0000000136029747  0.7821252642179014
  0.5894274486947679  0.5000000107314141  0.2878777554196641
  0.5879422925867805  0.4999999889078971  0.7725214322336722
  0.5875574891838135  0.2487054970206629  0.2839053722368570
  0.5863866160475933  0.2496972719786631  0.7835140455560765
  0.5875575818596832  0.7512944731459034  0.2839056346719984
  0.5863865920004325  0.7503026537047209  0.7835142000174374
  0.0826016679932032 -0.0000000088666046  0.0543917997049856
  0.0825846228656223  0.0000000098233674  0.5545435846645310
  0.0825905742990895  0.4999999368105480  0.0541225077655036
  0.0826977538293851  0.4999999670874897  0.5545051849631603
  0.0826316854780725  0.2499441125818545  0.0543956830493380
  0.0826858340082157  0.2500462485459350  0.5546064838774125
  0.0826316738005289  0.7500559360841571  0.0543955341621718
  0.0826858078094630  0.7499537684828355  0.5546063527130358
  0.5824872179691817  0.0000001974627215  0.0548072937503639
  0.5833631326336125 -0.0000000308360761  0.5564519616805591
  0.5811240612587966  0.5000000553688023  0.0583803414155691
  0.5836659565135209  0.5000000360983343  0.5483266147488738
  0.5868660844607270  0.2490103099078956  0.0549052300412454
  0.5836709590665236  0.2507773734114188  0.5568321248284365
  0.5868662135198568  0.7509895040965761  0.0549055058276581
  0.5836708716534935  0.7492225945262410  0.5568320897611649
  0.1654451129764417  0.1246064873704578  0.4457358873504366
  0.1658083330965427  0.1247997169981078  0.9456822911116525
  0.1659204178353223  0.6251470688006269  0.4457968953085285
  0.1667542974009814  0.6248624032926655  0.9467877869282829
  0.1659203850574141  0.3748529724782806  0.4457969352780453
  0.1667543715920788  0.3751376380452132  0.9467882172419281
  0.1654451579413458  0.8753934510641380  0.4457360251381801
  0.1658083286756510  0.8752002216375886  0.9456821789082427
  0.6678160723548183  0.1240380619885407  0.4464578526125453
  0.6684977263179303  0.1241218865747380  0.9457038815402575
  0.6694776202523774  0.6267776129319081  0.4479399396654736
  0.6685563614991346  0.6265930120628180  0.9476566546566534
  0.6694775658188504  0.3732222160283366  0.4479391174214264
  0.6685563668316139  0.3734069662215636  0.9476563375743621
  0.6678160793431012  0.8759621050206868  0.4464583253593806
  0.6684977031506736  0.8758781368831013  0.9457041045289468