Ga124
1.0
  25.7347908019999991    0.0000000000000000    0.0000000000000000
   0.0466839404000000   11.8182576342000001    0.0000000000000000
  -2.7483402082000001    0.0074025113000000   11.3993271417000006
Ga O
124 192
direct
   0.4206427340000000    0.8629562260000001    0.3405007120000000 Ga
   0.4993432460000001    0.7469201090000001    0.9813820120000001 Ga
   0.4185853600000000    0.3713318710000000    0.3215719760000000 Ga
   0.4112544360000000    0.3638862670000000    0.8387773630000002 Ga
   0.3738120790000001    0.6240187289999999    0.4415579440000000 Ga
   0.4550948140000000    0.6164278980000000    0.7288672920000000 Ga
   0.4562017320000001    0.1190537440000000    0.2302454860000000 Ga
   0.4583192170000000    0.1222769470000000    0.7283487920000000 Ga
   0.9166795020000000    0.6303785440000002    0.5836519600000000 Ga
   0.8779146670000001    0.8858211640000000    0.9380304810000001 Ga
   0.9592387080000000    0.3722207250000000    0.2346948830000000 Ga
   0.8734428880000001    0.3787254689999999    0.9256795640000000 Ga
   0.9220867160000001    0.6213939790000000    0.3275304730000000 Ga
   0.9107552770000000    0.6374154090000000    0.8360875250000001 Ga
   0.9097439050000002    0.1352082940000000    0.3343109490000001 Ga
   0.9211865070000000    0.1367056970000000    0.8279046420000000 Ga
   0.2447626290000000    0.1148197050000000    0.0062478820000000 Ga
   0.3394249680000000    0.0028529780000000    0.6793040630000001 Ga
   0.3323151470000000    0.4952543970000001    0.1480377170000000 Ga
   0.3269642590000000    0.4899997710000000    0.6552213430000001 Ga
   0.3300442990000000    0.7434713240000000    0.1560133700000000 Ga
   0.3325772880000001    0.7476953860000000    0.6652672290000000 Ga
   0.3325896260000000    0.2459825130000000    0.1652911310000000 Ga
   0.2086691110000000    0.3686329720000000    0.6111896630000000 Ga
   0.9545784000000002    0.8814576270000001    0.2282941040000000 Ga
   0.8397200700000003    0.9963641760000002    0.6614769700000002 Ga
   0.8385753629999999    0.4941377940000000    0.1594213550000000 Ga
   0.8277452590000001    0.5102574830000000    0.6530423760000000 Ga
   0.8348690270000001    0.7503118520000001    0.1519622060000000 Ga
   0.7069336180000000    0.6316025260000000    0.6115992070000000 Ga
   0.8290779590000003    0.0086371930000000    0.1516074240000000 Ga
   0.8331843020000000    0.2527880070000000    0.6474292280000001 Ga
   0.5057590600000000    0.9888859390000001    0.5127267240000000 Ga
   0.4566444160000000    0.6187001470000001    0.2241732480000000 Ga
   0.4128065710000001    0.3634867070000000    0.5848944780000001 Ga
   0.4151922170000000    0.8717530370000001    0.0722017210000000 Ga
   0.4224010410000000    0.8637214300000000    0.5974070430000001 Ga
   0.4998570680000001    0.2470458750000000    0.0190707070000000 Ga
   0.5035820009999999    0.2433819170000000    0.5115668180000001 Ga
   0.0035096850000000    0.0120228040000000    0.0116738090000000 Ga
   0.9959642890000001    0.0059009260000000    0.5056989190000000 Ga
   0.9934225680000001    0.5000911950000000    0.0049234180000000 Ga
   0.9567370410000001    0.3827612700000000    0.7327786680000000 Ga
   0.9998838310000003    0.7555958630000001    0.0142432180000000 Ga
   0.9593400960000001    0.8738176230000000    0.7369797830000000 Ga
   0.9155957100000000    0.1425059880000000    0.0805718970000000 Ga
   0.9942051170000000    0.2588757570000000    0.5056388970000001 Ga
   0.2897718550000001    0.8727001550000001    0.3988866510000000 Ga
   0.2901214960000000    0.8785153630000000    0.8877064590000000 Ga
   0.2898526190000000    0.3749065100000001    0.8924192790000001 Ga
   0.2509125170000000    0.6227698919999999    0.2505509560000000 Ga
   0.3779456910000000    0.6200384500000000    0.9357100130000000 Ga
   0.3772683740000000    0.1165899490000000    0.4401795860000000 Ga
   0.3762701450000001    0.1204204630000000    0.9404541250000000 Ga
   0.8754833340000001    0.8788334130000000    0.4293169680000000 Ga
   0.7554879780000000    0.8692362310000000    0.7600316410000001 Ga
   0.8762387039999999    0.3894006010000000    0.4364049730000000 Ga
   0.7530544400000001    0.3649582560000000    0.9995362160000001 Ga
   0.7894415260000001    0.6180421710000000    0.8923976420000002 Ga
   0.7893857960000001    0.1205790640000000    0.3915899990000001 Ga
   0.7919932009999999    0.1208064780000000    0.8841132520000000 Ga
   0.2564648390000001    0.1293585150000000    0.4987015430000000 Ga
   0.1643020960000000    0.2404979320000000    0.8316903110000000 Ga
   0.1708687390000000    0.5037451390000000    0.3466158810000001 Ga
   0.1700897960000000    0.5038962359999999    0.8467398880000000 Ga
   0.1686781640000000    0.7525959010000002    0.3378947970000000 Ga
   0.1720624120000000    0.7582119699999998    0.8478358980000000 Ga
   0.1702559290000001    0.2485311480000000    0.3304428760000000 Ga
   0.0788483100000000    0.3728588820000001    0.9197274450000000 Ga
   0.7488394380000000    0.8754169340000000    0.2346401070000000 Ga
   0.6669465300000001    0.9992192390000001    0.8314428330000000 Ga
   0.6706774230000001    0.4953078030000000    0.3433454630000001 Ga
   0.6622989180000000    0.5017293690000000    0.8405696150000000 Ga
   0.6669708490000000    0.7487803700000001    0.3328591880000000 Ga
   0.6674898860000001    0.7504051330000000    0.8485457900000001 Ga
   0.6668090820000001    0.2488812800000000    0.3318279980000000 Ga
   0.6614598630000001    0.2451733650000000    0.8187392350000000 Ga
   0.2103990910000000    0.8691608310000001    0.1130880860000000 Ga
   0.0885380880000000    0.8855825660000001    0.6755963560000001 Ga
   0.0799072090000000    0.3726364970000001    0.1656839700000000 Ga
   0.0795624700000000    0.3875538110000000    0.6655489800000000 Ga
   0.0439679550000000    0.6319143180000000    0.2714462880000000 Ga
   0.1265496460000000    0.6286891100000001    0.5643452410000002 Ga
   0.1680044680000000    0.0020140440000000    0.3239479660000000 Ga
   0.1259273740000000    0.1290324480000000    0.5613638160000000 Ga
   0.5414760709999999    0.8782559630000000    0.2721112670000000 Ga
   0.6257849930000000    0.8713710900000001    0.5631760950000000 Ga
   0.5449156760000001    0.3729777630000000    0.2735148970000000 Ga
   0.6219265460000000    0.3735821550000000    0.5540901420000000 Ga
   0.5845231410000000    0.6207125190000001    0.1543881000000000 Ga
   0.5780642630000001    0.6334942580000000    0.6750417350000000 Ga
   0.6223008040000000    0.3696963490000000    0.0608548560000000 Ga
   0.5826330780000001    0.1241665480000000    0.9186336990000001 Ga
   0.3309907320000000    0.9996469620000000    0.1773766130000000 Ga
   0.2106986340000001    0.8727514150000000    0.6101452710000002 Ga
   0.2111517340000000    0.3720555600000000    0.1068900670000000 Ga
   0.2909901140000000    0.3760235010000000    0.3902511300000001 Ga
   0.1224567590000000    0.6297304630000000    0.0605985600000000 Ga
   0.2499524210000000    0.6254749889999999    0.7508800630000001 Ga
   0.1239982400000000    0.1313294020000000    0.0639596280000000 Ga
   0.2505296470000000    0.1231305900000000    0.7515162230000001 Ga
   0.6200562720000001    0.8749845620000001    0.0524515060000000 Ga
   0.7543320660000000    0.8681248430000000    0.5026028750000000 Ga
   0.7558506730000001    0.3675028980000001    0.2566750940000000 Ga
   0.7469764349999999    0.3746604029999999    0.7331625220000001 Ga
   0.7125517130000001    0.6210001710000002    0.1067965110000000 Ga
   0.7938258649999999    0.6210897560000000    0.3872483370000000 Ga
   0.7084314820000001    0.1283958260000000    0.1067641530000000 Ga
   0.7111616730000000    0.1217733550000000    0.6084632280000001 Ga
   0.0822486210000000    0.8796897530000000    0.4065830110000000 Ga
   0.0805323500000000    0.3834448160000000    0.4202740490000000 Ga
   0.0407965260000000    0.6337940099999999    0.7783209679999999 Ga
   0.0027421120000000    0.7435607910000001    0.5050953630000000 Ga
   0.0874006300000000    0.8834266070000000    0.9312250020000000 Ga
   0.0408051980000000    0.1269326810000000    0.2763117850000000 Ga
   0.0405962840000000    0.1217743530000000    0.7716331480000000 Ga
   0.6632829310000001    0.0014719760000000    0.3216342630000000 Ga
   0.5005651710000001    0.9982523919999999    0.0029159860000000 Ga
   0.4973763820000001    0.5068041089999999    0.4993909000000000 Ga
   0.4989253880000001    0.4958245160000000    0.9977172610000000 Ga
   0.5790639520000002    0.6307993530000000    0.4164942200000000 Ga
   0.5454768540000000    0.8803289529999999    0.7788373830000002 Ga
   0.5835551020000002    0.1227679920000000    0.4167366920000000 Ga
   0.5416953560000000    0.3743174969999999    0.7750377060000001 Ga
   0.2461994229185173    0.0008877260957532    0.3880967162101409 O
   0.2516005522773035    0.0132723256608489    0.8785513042912689 O
   0.2466639848907509    0.5022981856058140    0.3645472489319593 O
   0.2458832530725739    0.5025179215688560    0.8658059436393489 O
   0.2473049278310028    0.7443136576447922    0.3666861755862645 O
   0.2479687441106913    0.7486028779840094    0.8685472696274038 O
   0.2472233093159242    0.2507847314511427    0.3835669665300921 O
   0.2455238791649454    0.2416254098599023    0.8718391821136274 O
   0.7443196530755275    0.9852342438636262    0.3693829836255497 O
   0.7454708350282147    0.9979790029442200    0.8594959492377633 O
   0.7456367373547005    0.5014792290214775    0.3541600033993544 O
   0.7431675523860818    0.4848713478937018    0.8681184859430230 O
   0.7469831715419869    0.7550791014772738    0.3721014548325967 O
   0.7449789446446986    0.7447224528800007    0.8581704533504687 O
   0.7457530762098918    0.2494073002330649    0.3623511542034901 O
   0.7460775968028298    0.2562396265678448    0.8691491114306429 O
   0.9952462055925502    0.8814497826204877    0.1172067117455996 O
   0.0034679852630113    0.8790072566985297    0.6201277795073450 O
   0.0035666263694263    0.3902923256130050    0.1305733350533651 O
   0.0032345295963412    0.3678938132676576    0.6311854977091848 O
   0.0044567672749493    0.6273671727032758    0.1183709722412389 O
   0.9987446535530625    0.6370872793403506    0.6265420578106244 O
   0.9967675402250027    0.1218337249218086    0.1282759292407265 O
   0.0044623170486412    0.1292885168815782    0.6150829089080304 O
   0.4967593816362499    0.8721230373012597    0.1185715525077149 O
   0.4993001396753540    0.8800251766879352    0.6296295775627462 O
   0.5031251224865990    0.3753892143607554    0.1220988464455677 O
   0.4976465983317431    0.3728863407806119    0.6154527969037036 O
   0.5033117086403270    0.6210364045869775    0.1190018608314445 O
   0.5017875204708575    0.6108536102676472    0.6272085888650750 O
   0.4972683127664009    0.1199684668806708    0.1202796646212706 O
   0.4971294416823245    0.1203883630972047    0.6118737074583601 O
   0.4128246796912742    0.9838296031712136    0.2088397246156609 O
   0.4150408418183111    0.9952490824669250    0.6981106716242655 O
   0.4114325967797235    0.4962897875348936    0.2145304086202844 O
   0.4122624708846331    0.4828789960363308    0.7044673523973189 O
   0.4140636206063599    0.7547951150737066    0.2083040152682009 O
   0.4129807997857555    0.7452019033669226    0.7012164229558686 O
   0.4131080478095862    0.2468497914446766    0.2153354258698698 O
   0.4210290783487957    0.2587514022656900    0.7118889951091564 O
   0.9115638702666786    0.0161409372545931    0.2053786438010330 O
   0.9158837418471741    0.0018727127125734    0.7174385187699736 O
   0.9150517842774315    0.4991427454304331    0.2154993742631812 O
   0.9125512051470488    0.5152283102875562    0.7042637148192299 O
   0.9126509018716678    0.7527872055511445    0.2216678763186373 O
   0.9191552546127897    0.7419087805672685    0.7092940268132019 O
   0.9182480329691508    0.2418876747138237    0.2098556655879870 O
   0.9123270216660040    0.2572629980766580    0.7144016783100132 O
   0.3361976987574501    0.8715258713632568    0.2873686882416093 O
   0.3322308348417309    0.8729007351870935    0.7791836864422850 O
   0.3374025131829477    0.3713341425820719    0.2836459920697654 O
   0.3352165904031486    0.3838143264863496    0.7906045478305502 O
   0.3314473607204859    0.6222339023762175    0.2828024897852797 O
   0.3304965150158609    0.6232170637128930    0.7830335300930320 O
   0.3371289210100687    0.1223531460645189    0.2866757464572078 O
   0.3306820282089603    0.1155186084355338    0.7925235457771815 O
   0.8283301882359784    0.8738907061672634    0.2770321706374154 O
   0.8310725863993683    0.8919772451987418    0.7896351190700263 O
   0.8306814503475995    0.3897611850159453    0.2865633912656257 O
   0.8265913587503904    0.3771192892621736    0.7718567101745861 O
   0.8379422884533423    0.6274980003051266    0.2789521846636629 O
   0.8344630689740644    0.6135283186113705    0.7898198753435917 O
   0.8340237654938347    0.1124281036993659    0.2890476872622362 O
   0.8371957187084341    0.1281631619690083    0.7759385463461246 O
   0.3360273786506188    0.8709684787591767    0.0486153253194454 O
   0.3369105012693220    0.8718212338678678    0.5519840524847347 O
   0.3301793983359192    0.3683400597294739    0.0464324615360857 O
   0.3363518080955737    0.3811678157350304    0.5380281394048801 O
   0.3380345981944163    0.6226058031903543    0.0503393158578006 O
   0.3349905873695945    0.6195758054690271    0.5553436407399903 O
   0.3313924302193481    0.1202110458933675    0.0525421925913367 O
   0.3326724755404005    0.1104466749846476    0.5430423891476504 O
   0.8380748083494369    0.8778725000719820    0.0522475327486149 O
   0.8309643499282430    0.8864900441726160    0.5337284824974948 O
   0.8293406261398167    0.3873952521192927    0.0314907093732379 O
   0.8357159869870250    0.3817433665557958    0.5492412495692387 O
   0.8276531923803578    0.6229170095137030    0.0474982008119724 O
   0.8350332759651753    0.6227153458805529    0.5386900668337147 O
   0.8352795023172909    0.1173936590286796    0.0346739459592801 O
   0.8285375028062415    0.1237624486179094    0.5456909271889560 O
   0.4218160346467030    0.9841060812031097    0.4603919058432640 O
   0.4209034924058096    0.9944081931053990    0.9710642524275428 O
   0.4193141237186230    0.4884870936114716    0.4589781815537715 O
   0.4207425201967385    0.4921385800659047    0.9498539835323031 O
   0.4142290026151218    0.7560924312677675    0.4593902432522873 O
   0.4220994863605024    0.7466007541971259    0.9727808896032063 O
   0.4200969546719375    0.2551080855333351    0.4601287735494635 O
   0.4212717877924451    0.2452771117056046    0.9528691566973261 O
   0.9200709679177819    0.0034883153055819    0.4456491204547497 O
   0.9217357045885209    0.0193043985944747    0.9605809179672280 O
   0.9169618411571812    0.5213383546152683    0.4577252564270192 O
   0.9180487220261376    0.5044198114077967    0.9446917472366807 O
   0.9212672057272949    0.7481549037700960    0.4624138798142199 O
   0.9206129247833341    0.7568937227306107    0.9495257240490712 O
   0.9180397862320150    0.2575116603968580    0.4479020625486398 O
   0.9120767784670056    0.2451780241350774    0.9524553291432379 O
   0.0035266355911811    0.8809180505968345    0.3858406114693442 O
   0.0048988922379268    0.8783637437840427    0.8911779817244684 O
   0.0050379909115429    0.3656609294817094    0.3837623509663307 O
   0.0034770000573329    0.3942514294638185    0.8799996852475952 O
   0.9991171639695134    0.6399406325071023    0.3746854994099761 O
   0.9967160181646924    0.6293882575304640    0.8867311166515260 O
   0.9970769496165126    0.1276716210934828    0.3873338598780992 O
   0.9974860650513410    0.1217001675638618    0.8764791136016551 O
   0.4973328407681480    0.8823753248606381    0.3757238358030139 O
   0.5031969166168107    0.8756470663566073    0.8878422328807356 O
   0.4976607978889384    0.3725670529524534    0.3819173210089691 O
   0.4969242461419733    0.3725796103707368    0.8829223205608455 O
   0.5023707023639813    0.6124646139041137    0.3736147552161327 O
   0.4975391611706383    0.6192851192976238    0.8808995245369333 O
   0.5028731245867825    0.1230732387561154    0.3855623026955016 O
   0.5024525042503608    0.1215872098767945    0.8849643574038352 O
   0.2545458478909215    0.9951786700059105    0.1203054639539420 O
   0.2530786152027088    0.0078814321313775    0.6286473510237032 O
   0.2545139707614555    0.4992622693115180    0.1369258233801502 O
   0.2505899113793650    0.4976470981148141    0.6347560016443315 O
   0.2544849299828496    0.7417601207161859    0.1350587170955913 O
   0.2534342925189293    0.7440388146794737    0.6332913969254070 O
   0.2536153931724084    0.2427052537794833    0.1190987746883779 O
   0.2477817904043183    0.2354160638629891    0.6253369590808694 O
   0.7517732721469956    0.0004588718636757    0.1312093401563720 O
   0.7530146677547103    0.9873900547515019    0.6217848268469754 O
   0.7523841635251738    0.4852756162126816    0.1226444258216040 O
   0.7497464416949247    0.5041025851578472    0.6317981899454449 O
   0.7539957012297515    0.7487408306424780    0.1380106835332073 O
   0.7454246457269373    0.7638155045915401    0.6219858502508780 O
   0.7460294075639043    0.2626641239134742    0.1209126438912150 O
   0.7529507775240497    0.2505897725856813    0.6317647262902345 O
   0.1691786298761026    0.8752326745875967    0.2232612453158561 O
   0.1643219093407859    0.8629951106305984    0.7104843825566393 O
   0.1644432367788313    0.3761306036606993    0.2171428091898667 O
   0.1617178080970093    0.3750254531680571    0.7198769303245016 O
   0.1683527901661356    0.6246843408328128    0.2171102011510599 O
   0.1691590559544679    0.6248748881080336    0.7210695541682007 O
   0.1637307820172358    0.1279590123303542    0.2179147621259262 O
   0.1686898202675089    0.1330123579697405    0.7111745314257161 O
   0.6677066438683230    0.8712798910206342    0.2119474546915741 O
   0.6697014456665418    0.8747504562303544    0.7176143553880256 O
   0.6678389808423807    0.3756975830594720    0.2166624264240836 O
   0.6670713650494020    0.3726418540476681    0.7098271829807901 O
   0.6637540334085641    0.6256730221997684    0.2133899091685699 O
   0.6612308048182102    0.6213435518238871    0.7177628138602756 O
   0.6675723873655316    0.1243860332021387    0.2182057570433057 O
   0.6679564620014105    0.1236413263994007    0.7151282522529325 O
   0.0885713929980071    0.0062330483656889    0.3100739618362984 O
   0.0817905106899317    0.9903703226351023    0.7951819169893345 O
   0.0879534774167776    0.4937703943057144    0.2961157109404308 O
   0.0857289882899646    0.4968423983445205    0.7959196970461121 O
   0.0891069603045205    0.7556452598550549    0.3050458805447734 O
   0.0870930282792079    0.7627413583629868    0.7947850927428086 O
   0.0864359931908951    0.2612279983866849    0.2965647951173855 O
   0.0852471563233175    0.2589264711592008    0.7967639421531378 O
   0.5873639977274778    0.0003081876002400    0.3012812141097089 O
   0.5887223676198253    0.0074504882752344    0.8030924945349805 O
   0.5877804529969840    0.5111639991118709    0.2946380924809462 O
   0.5862450416009359    0.4991866828300550    0.7805158060030823 O
   0.5860329357517764    0.7421149615756533    0.2940998658841594 O
   0.5885510593294048    0.7512970052733495    0.7874416525361995 O
   0.5880093876899829    0.2455783848667044    0.3040420996259598 O
   0.5853792829613479    0.2473693909388182    0.8009704818112453 O
   0.0804422496291873    0.0060636510266659    0.0351720316589523 O
   0.0824592514711889    0.9945191675047887    0.5430918802751076 O
   0.0816719500079398    0.4924947444942457    0.0440881988383747 O
   0.0877077303175222    0.4940493226654630    0.5463014761155576 O
   0.0786321073020471    0.7551824080473432    0.0322753241385511 O
   0.0813346078706412    0.7616599717140377    0.5440001295505634 O
   0.0854570364531552    0.2661170083334333    0.0455433456836283 O
   0.0820424267836641    0.2632861917999249    0.5427683364022881 O
   0.5794650199257371    0.0051548203026714    0.0372154860522332 O
   0.5819454322454459   -0.0021063228376076    0.5316215697489849 O
   0.5798715525479214    0.4990375949418640    0.0461074994796743 O
   0.5787945887068834    0.5082507078805949    0.5358485615574198 O
   0.5777529739539283    0.7473830867832401    0.0518200795052826 O
   0.5879982435883522    0.7351844957679006    0.5444918275458213 O
   0.5784515198421707    0.2446140538389554    0.0318399466286240 O
   0.5797913376576793    0.2454501380815082    0.5329244894791042 O
   0.1642750041640075    0.8767760875010272    0.4543659172840462 O
   0.1643762007928315    0.8659352711224808    0.9650564116651235 O
   0.1639398819987017    0.3747361205147793    0.4520809060124807 O
   0.1637103270971517    0.3773193086881271    0.9521185908245204 O
   0.1651950253820244    0.6273192152120062    0.4497011961461250 O
   0.1627761267435230    0.6265420701756131    0.9480522067291640 O
   0.1701348097125805    0.1280896305570929    0.4512442648415985 O
   0.1688996101932229    0.1373667888071402    0.9608250170138369 O
   0.6693337410353528    0.8726190848703191    0.4475968684503810 O
   0.6654974647942449    0.8753856742253163    0.9510276966223259 O
   0.6652918174997866    0.3746547972989518    0.4482066506879273 O
   0.6676611000637616    0.3726158562891775    0.9491704692201600 O
   0.6645928507292914    0.6247475075260949    0.4494466017061748 O
   0.6705539833220455    0.6227109087219270    0.9550301100727616 O
   0.6653630110022701    0.1216529049178348    0.4508762451969767 O
   0.6646428884686296    0.1270871254093575    0.9493407194522033 O