Ga O
1.0
  24.5897949699274996  -0.0000000310852442  -0.0071403374229552
  -0.0000000174755273  12.2318090455346997  -0.0000001305803818
  -2.7359230900709699  -0.0000001122443410  11.3163492498813003
Ga O
128  192  
Direct
  0.4204757694890834  0.1249999932206795  0.3434637817043492  
  0.4204757805850606  0.1249999978503584  0.8434637830492113  
  0.4204757748270847  0.6249999944957831  0.3434637744256375  
  0.4204757774965318  0.6249999979459057  0.8434637641685017  
  0.4204757759623578  0.3749999973746388  0.3434637753777484  
  0.4204757815567972  0.3750000025378178  0.8434637772449420  
  0.4204757731397232  0.8749999936205528  0.3434637786889730  
  0.4204757766932733  0.8749999962308275  0.8434637840507517  
  0.9204757753664807  0.1250000131188390  0.3434637805008201  
  0.9204757812862786  0.1250000094190332  0.8434637695270302  
  0.9204757804242648  0.6249999953517645  0.3434637730225079  
  0.9204757765964804  0.6250000035361845  0.8434637776248097  
  0.9204757800513401  0.3749999996845082  0.3434637673186337  
  0.9204757779395698  0.3750000066021301  0.8434637759898762  
  0.9204757799727261  0.8750000050083100  0.3434637709466841  
  0.9204757789076197  0.8750000007798157  0.8434637774797943  
  0.3295299506085702  0.0000000106725178  0.1572395311647205  
  0.3295299503457383  0.9999999955260830  0.6572395302601354  
  0.3295299469306127  0.4999999949630731  0.1572395178600005  
  0.3295299483661970  0.5000000043609746  0.6572395282846568  
  0.3295299488846604  0.2500000038361102  0.1572395223750583  
  0.3295299513645868  0.2499999914550463  0.6572395424003893  
  0.3295299486683313  0.7499999942052546  0.1572395253445646  
  0.3295299514427297  0.7500000026051569  0.6572395358464246  
  0.8295299486323016  0.9999999985961230  0.1572395340224103  
  0.8295299535978362  0.9999999962754650  0.6572395338731596  
  0.8295299483322588  0.4999999987313015  0.1572395305293884  
  0.8295299524262104  0.4999999998626789  0.6572395383874884  
  0.8295299463323789  0.2500000056002921  0.1572395177788267  
  0.8295299537905382  0.2500000037522274  0.6572395426289765  
  0.8295299494162380  0.7499999993955326  0.1572395218849366  
  0.8295299509066524  0.7499999995925973  0.6572395277437973  
  0.4548328853544253  0.9999999935884960  0.1026884462463528  
  0.4548328811277529  0.9999999975335639  0.6026884392791821  
  0.4548328789183808  0.4999999979080964  0.1026884313332651  
  0.4548328799613433  0.5000000040381927  0.6026884261122638  
  0.4548328802461687  0.2499999944872872  0.1026884364679777  
  0.4548328768567148  0.2500000004759475  0.6026884213384673  
  0.4548328795605414  0.7499999992718083  0.1026884263242222  
  0.4548328769200901  0.7500000013139355  0.6026884210764367  
  0.9548328839908250  0.9999999982864139  0.1026884312161694  
  0.9548328779047878  0.0000000044388514  0.6026884281863106  
  0.9548328843119588  0.5000000074080218  0.1026884396108177  
  0.9548328830805554  0.5000000064937522  0.6026884396441674  
  0.9548328859934915  0.2499999991463580  0.1026884341837367  
  0.9548328787171456  0.2500000063292397  0.6026884285221116  
  0.9548328860353943  0.7500000130257511  0.1026884316085799  
  0.9548328820775873  0.7500000036774067  0.6026884276296783  
  0.2951615601242114  0.1250000008183795  0.3979987846534931  
  0.2951615560732336  0.1249999955499930  0.8979987920098176  
  0.2951615610508189  0.6249999916791862  0.3979987844346861  
  0.2951615528082785  0.6249999947177785  0.8979987850725204  
  0.2951615658934320  0.3749999964096171  0.3979987864600470  
  0.2951615566725743  0.3749999919113504  0.8979987908653756  
  0.2951615625558972  0.8750000033675835  0.3979987883558916  
  0.2951615561835543  0.8750000047992111  0.8979987910410705  
  0.7951615582066521  0.1249999992251337  0.3979987794488031  
  0.7951615516312819  0.1249999988006100  0.8979987780251966  
  0.7951615510752020  0.6250000037390557  0.3979987876837028  
  0.7951615519698223  0.6250000003095230  0.8979987867179325  
  0.7951615585236665  0.3749999939864425  0.3979987735222926  
  0.7951615457463395  0.3750000015573444  0.8979987833139208  
  0.7951615635907719  0.8749999951181064  0.3979987953537962  
  0.7951615453065288  0.8749999960449033  0.8979987783424637  
  0.1704686822045552  0.0000000090515305  0.3433896432697234  
  0.1704686748151109  0.0000000002568144  0.8433896386129035  
  0.1704686761756880  0.5000000084384582  0.3433896291324189  
  0.1704686798318428  0.5000000069273083  0.8433896409950263  
  0.1704686780806181  0.2499999813738834  0.3433896472632236  
  0.1704686758727200  0.2500000107442125  0.8433896399376728  
  0.1704686806278204  0.7499999929599358  0.3433896492579546  
  0.1704686782256494  0.7500000103383114  0.8433896334871923  
  0.6704686819276655  0.0000000065740314  0.3433896481840729  
  0.6704686763748937  0.0000000071608242  0.8433896348144362  
  0.6704686758989238  0.4999999949913476  0.3433896378122591  
  0.6704686757349585  0.4999999969155479  0.8433896407055373  
  0.6704686858291020  0.2500000032858620  0.3433896403198812  
  0.6704686739437908  0.2500000031879787  0.8433896367531879  
  0.6704686846595185  0.7499999924246519  0.3433896403663059  
  0.6704686723471429  0.7499999996224971  0.8433896306745488  
  0.0795251763099601  0.1249999983577452  0.1571573483244725  
  0.0795251713696413  0.1250000068998511  0.6571573449973126  
  0.0795251769636940  0.6249999971285692  0.1571573484897555  
  0.0795251804532781  0.6250000101019250  0.6571573577759419  
  0.0795251761767300  0.3750000067346919  0.1571573486393098  
  0.0795251733639991  0.3749999994598037  0.6571573437462124  
  0.0795251774995802  0.8749999970825408  0.1571573421853247  
  0.0795251774483011  0.8750000123689902  0.6571573487228786  
  0.5795251765784241  0.1250000176736682  0.1571573629616559  
  0.5795251754467651  0.1249999922026626  0.6571573520454285  
  0.5795251791902896  0.6249999955043523  0.1571573523888335  
  0.5795251756862310  0.6249999937384426  0.6571573473038660  
  0.5795251749132470  0.3750000000699904  0.1571573535276579  
  0.5795251750747207  0.3749999891568427  0.6571573571825825  
  0.5795251763408720  0.8749999992045434  0.1571573506513943  
  0.5795251770706489  0.8750000068244334  0.6571573311541918  
  0.2048368918113503  0.1250000047719311  0.1026289455134174  
  0.2048368937231594  0.1250000007768337  0.6026289373053768  
  0.2048368896808449  0.6250000055507253  0.1026289379872901  
  0.2048368944637728  0.6249999931905414  0.6026289269751113  
  0.2048368910383814  0.3749999986263924  0.1026289402724959  
  0.2048368962671708  0.3749999969492699  0.6026289329741418  
  0.2048368908561512  0.8750000082910402  0.1026289471070528  
  0.2048368938284367  0.8750000060557707  0.6026289320563568  
  0.7048368907068377  0.1250000018530923  0.1026289362798542  
  0.7048368940197700  0.1250000005274692  0.6026289353323268  
  0.7048368920032135  0.6250000125273800  0.1026289369424011  
  0.7048368988495817  0.6250000028829152  0.6026289355835897  
  0.7048368923218786  0.3750000018666207  0.1026289498725965  
  0.7048369031340487  0.3749999989485645  0.6026289500926520  
  0.7048368904932177  0.8749999977295452  0.1026289366709892  
  0.7048368986572561  0.8749999967881670  0.6026289488467356  
  0.0451648286406264  0.0000000037734067  0.3979309383767571  
  0.0451648274361538  0.9999999961798410  0.8979309385958182  
  0.0451648307812641  0.4999999923682192  0.3979309415775932  
  0.0451648318433249  0.4999999948971959  0.8979309471541139  
  0.0451648293414429  0.2500000039636950  0.3979309280719789  
  0.0451648338827962  0.2499999967645859  0.8979309414425577  
  0.0451648289352541  0.7500000022987042  0.3979309487822306  
  0.0451648260814617  0.7499999990113775  0.8979309517244867  
  0.5451648236530532  0.0000000056052924  0.3979309430453816  
  0.5451648279370156  0.9999999991069020  0.8979309513432230  
  0.5451648210045182  0.4999999938764486  0.3979309476126185  
  0.5451648321080376  0.4999999960513707  0.8979309459606520  
  0.5451648188533313  0.2499999894965011  0.3979309412513498  
  0.5451648242620437  0.2500000013483933  0.8979309350155934  
  0.5451648239336987  0.7499999937303534  0.3979309374787618  
  0.5451648225444764  0.7499999971292463  0.8979309316279184  
  0.2517075820975572  0.9999999994067210  0.3725453600489573  
  0.2517075807188902  0.9999999896924160  0.8725453600696494  
  0.2517075900031365  0.5000000029680267  0.3725453646724917  
  0.2517075829463057  0.4999999996724231  0.8725453459559598  
  0.2517075823951344  0.2499999895286970  0.3725453542034675  
  0.2517075822260201  0.2500000080994806  0.8725453680917603  
  0.2517075912597904  0.7499999922625918  0.3725453733286362  
  0.2517075815149345  0.7500000032779968  0.8725453491471453  
  0.7517075898045892  0.0000000020564420  0.3725453529903682  
  0.7517075816350878  0.9999999973926050  0.8725453486143837  
  0.7517075835985595  0.4999999963097464  0.3725453522003543  
  0.7517075752979572  0.4999999929663520  0.8725453484125697  
  0.7517075847416134  0.2499999950148844  0.3725453632184425  
  0.7517075813219173  0.2499999918127796  0.8725453562145570  
  0.7517075924402887  0.7499999938254365  0.3725453752884390  
  0.7517075860141186  0.7499999949064721  0.8725453671783624  
  0.9982919642503361  0.1250000047766097  0.1280908365470166  
  0.9982919624899754  0.1250000090623863  0.6280908302086474  
  0.9982919703614509  0.6250000026146627  0.1280908522644343  
  0.9982919624952571  0.6250000058941536  0.6280908522875625  
  0.9982919673794398  0.3750000051181462  0.1280908396291845  
  0.9982919661993717  0.3750000034981205  0.6280908385811342  
  0.9982919694024465  0.8750000061513091  0.1280908269481720  
  0.9982919601453717  0.8750000139243957  0.6280908355883256  
  0.4982919653659995  0.1250000054713687  0.1280908440305353  
  0.4982919689349525  0.1250000025704416  0.6280908312219425  
  0.4982919720366067  0.6250000012993769  0.1280908261822991  
  0.4982919669117599  0.6249999912483877  0.6280908402035021  
  0.4982919660212530  0.3749999940065272  0.1280908376376341  
  0.4982919679205211  0.3750000073895180  0.6280908328718630  
  0.4982919731907790  0.8750000103840465  0.1280908375360763  
  0.4982919743355768  0.8750000072366553  0.6280908371770527  
  0.4135829009890711  0.9999999964595510  0.2192145011570461  
  0.4135829083965615  0.9999999969550780  0.7192144938048654  
  0.4135829039256644  0.5000000002574873  0.2192144972474354  
  0.4135829016200863  0.4999999981633384  0.7192144972854073  
  0.4135828979855319  0.2499999895279552  0.2192144946371915  
  0.4135829001159613  0.2499999967945490  0.7192145156280965  
  0.4135829087572815  0.7500000001666892  0.2192144905937238  
  0.4135828975665002  0.7500000063830196  0.7192145081384317  
  0.9135828941499509  0.0000000007795628  0.2192144839942492  
  0.9135828969503286  0.9999999990052910  0.7192144953700254  
  0.9135828961248943  0.4999999952528730  0.2192145007900874  
  0.9135828942093455  0.4999999932086766  0.7192145009495504  
  0.9135828965240950  0.2500000045151063  0.2192144916871499  
  0.9135828970862329  0.2500000025581809  0.7192145068109950  
  0.9135828961240378  0.7499999992336461  0.2192144978138212  
  0.9135828990832817  0.7499999925489498  0.7192145020539487  
  0.3364194093670031  0.1250000025158912  0.2814763513929055  
  0.3364194104859146  0.1249999971877821  0.7814763456995029  
  0.3364194082670813  0.6250000066470678  0.2814763504686531  
  0.3364194115346102  0.6250000028243002  0.7814763353710047  
  0.3364194124493895  0.3750000017833660  0.2814763473611910  
  0.3364194140255225  0.3749999989684573  0.7814763405667013  
  0.3364194106981120  0.8749999943293435  0.2814763457523383  
  0.3364194081505323  0.8750000027965062  0.7814763471351511  
  0.8364194044528119  0.1250000116161934  0.2814763458838948  
  0.8364194078894759  0.1250000120143911  0.7814763531104222  
  0.8364194072313544  0.6249999976732012  0.2814763456073316  
  0.8364194100437237  0.6249999989286632  0.7814763509912076  
  0.8364194079927645  0.3750000089203033  0.2814763466385240  
  0.8364194075720851  0.3749999954695332  0.7814763614962172  
  0.8364194114669352  0.8750000082238220  0.2814763492722121  
  0.8364194066155090  0.8749999976626940  0.7814763493050553  
  0.3332279751584623  0.1249999976740797  0.0546086065487029  
  0.3332279815360874  0.1250000048769404  0.5546086040348535  
  0.3332279765445099  0.6250000015847532  0.0546086124088176  
  0.3332279801491223  0.6250000025523800  0.5546086125161046  
  0.3332279792651109  0.3750000053385954  0.0546085993724762  
  0.3332279738377781  0.3749999941857993  0.5546086009579507  
  0.3332279714856632  0.8750000005161230  0.0546085899823531  
  0.3332279778930110  0.8749999953313079  0.5546086046937275  
  0.8332279732880125  0.1250000112240549  0.0546085747115610  
  0.8332279740680304  0.1250000009031847  0.5546085798582410  
  0.8332279749945430  0.6249999969421288  0.0546085913350249  
  0.8332279726960663  0.6249999988500068  0.5546085912895841  
  0.8332279761465279  0.3749999980851356  0.0546085916275052  
  0.8332279715308373  0.3749999927146646  0.5546086107802038  
  0.8332279755018841  0.8749999984430280  0.0546085910560471  
  0.8332279849039276  0.8749999888415788  0.5546085939659972  
  0.4167768448286161  0.9999999993273940  0.4460763137560063  
  0.4167768500036713  0.0000000001201829  0.9460763076088774  
  0.4167768489182036  0.4999999909125383  0.4460763155027467  
  0.4167768515149977  0.5000000060585456  0.9460763017588700  
  0.4167768391789736  0.2499999902081806  0.4460763079184884  
  0.4167768553673542  0.2499999879379688  0.9460763124827072  
  0.4167768467900614  0.7499999887899520  0.4460763104975046  
  0.4167768500679123  0.7499999951843405  0.9460763060935427  
  0.9167768634663154  0.0000000117406744  0.4460763050289346  
  0.9167768570710306  0.9999999986372730  0.9460763198551062  
  0.9167768557327665  0.4999999870524018  0.4460763190144533  
  0.9167768616391178  0.5000000071506768  0.9460763127404601  
  0.9167768460313717  0.2500000040936790  0.4460763155935970  
  0.9167768650460542  0.2499999952565738  0.9460763252938444  
  0.9167768676378125  0.7500000069583954  0.4460763266462449  
  0.9167768577482067  0.7499999993658667  0.9460763258449223  
  0.0017077448928373  0.1250000049551223  0.3725118562145193  
  0.0017077491024979  0.1249999859055218  0.8725118222152261  
  0.0017077493905789  0.6250000015419970  0.3725118487446512  
  0.0017077460955917  0.6249999976444349  0.8725118358422856  
  0.0017077446479034  0.3749999885281346  0.3725118265218290  
  0.0017077458320884  0.3749999987525230  0.8725118310401176  
  0.0017077507041673  0.8749999948380480  0.3725118444750384  
  0.0017077466870833  0.8749999983323046  0.8725118294193036  
  0.5017077317025033  0.1250000041568744  0.3725118629224738  
  0.5017077396047374  0.1250000086920229  0.8725118263666791  
  0.5017077371447155  0.6249999982844029  0.3725118632806588  
  0.5017077355087489  0.6250000071690611  0.8725118167091735  
  0.5017077323597660  0.3750000002663122  0.3725118481942514  
  0.5017077358214224  0.3749999863310402  0.8725118383462763  
  0.5017077352070844  0.8749999912986812  0.3725118608862072  
  0.5017077450549216  0.8749999937427049  0.8725118501351153  
  0.2482920156859541  0.0000000011882135  0.1281030766077225  
  0.2482920198812080  0.9999999966532850  0.6281030562236487  
  0.2482920147273349  0.5000000008406256  0.1281030641693997  
  0.2482920120713134  0.5000000082340446  0.6281030774803694  
  0.2482920072450152  0.2500000070249554  0.1281030678363713  
  0.2482920176690690  0.2500000044325628  0.6281030738702982  
  0.2482920189191693  0.7499999980511283  0.1281030783827905  
  0.2482920158198572  0.7500000052551729  0.6281030576125299  
  0.7482920118614094  0.0000000143680752  0.1281030687365418  
  0.7482920283532529  0.0000000083853909  0.6281030604407958  
  0.7482920183504957  0.5000000063505201  0.1281030676683127  
  0.7482920159348148  0.5000000078116326  0.6281030630573319  
  0.7482920158174255  0.2500000035557416  0.1281030686810043  
  0.7482920210107495  0.2500000038668022  0.6281030770077378  
  0.7482920180713011  0.7499999902249370  0.1281030851372139  
  0.7482920187029412  0.7499999966966977  0.6281030750138628  
  0.1635817766978098  0.1249999996996746  0.2191507133293756  
  0.1635817685430404  0.1249999911011866  0.7191507197024511  
  0.1635817695739019  0.6249999956126152  0.2191507261347993  
  0.1635817650957562  0.6250000083601722  0.7191507225107298  
  0.1635817687175871  0.3749999958726579  0.2191507104376681  
  0.1635817733947820  0.3749999912798074  0.7191507039150745  
  0.1635817729103223  0.8750000004041888  0.2191507155207591  
  0.1635817678168492  0.8749999952706471  0.7191507139560577  
  0.6635817591191270  0.1249999991785413  0.2191507037116273  
  0.6635817604827270  0.1249999941372037  0.7191506965117432  
  0.6635817571524983  0.6249999973952977  0.2191507125957101  
  0.6635817578928345  0.6249999888227216  0.7191506904593363  
  0.6635817536474968  0.3749999949134752  0.2191507060462601  
  0.6635817605877016  0.3749999932090078  0.7191507187242271  
  0.6635817610633208  0.8749999963678408  0.2191507013401701  
  0.6635817637887823  0.8749999945602346  0.7191507018768084  
  0.0864171051888129  0.0000000007498552  0.2814077431915830  
  0.0864171075247467  0.0000000034542901  0.7814077431585538  
  0.0864171065854305  0.4999999992627269  0.2814077467572187  
  0.0864171119596865  0.5000000098512745  0.7814077321797173  
  0.0864171127699591  0.2499999988959298  0.2814077530974675  
  0.0864171097396188  0.2500000002807371  0.7814077406595727  
  0.0864171100486370  0.7500000005887710  0.2814077396959487  
  0.0864171120812851  0.7500000106672199  0.7814077422683451  
  0.5864171116220848  0.0000000065668666  0.2814077664341232  
  0.5864171095943099  0.9999999986031560  0.7814077385646699  
  0.5864171099289240  0.4999999947306792  0.2814077633835236  
  0.5864171140979780  0.4999999959539703  0.7814077445436117  
  0.5864171069039261  0.2500000014246839  0.2814077493732507  
  0.5864171097172950  0.2500000047898162  0.7814077519571551  
  0.5864171061709079  0.7500000010479034  0.2814077525064080  
  0.5864171072397985  0.7500000018385058  0.7814077378266211  
  0.0832273120814202  0.0000000013479130  0.0545402955852766  
  0.0832273021783489  0.9999999991573389  0.5545403030377757  
  0.0832272969252100  0.4999999906865732  0.0545403100738476  
  0.0832272947547532  0.4999999997542293  0.5545402897922190  
  0.0832273011542781  0.2499999997778811  0.0545402901504478  
  0.0832272980572824  0.2500000059122067  0.5545403058340677  
  0.0832273014145498  0.7500000032200975  0.0545402976181630  
  0.0832272937374336  0.7500000011566412  0.5545402990603292  
  0.5832272941728123  0.9999999943654260  0.0545403064323898  
  0.5832273001834639  0.0000000039815097  0.5545403019468569  
  0.5832272907767135  0.4999999981807408  0.0545403055638016  
  0.5832272972501582  0.5000000039754899  0.5545402974343352  
  0.5832272996424993  0.2499999948693366  0.0545403129789469  
  0.5832272977553614  0.2499999935961309  0.5545402961358045  
  0.5832272944339394  0.7500000030007313  0.0545402947585178  
  0.5832273075719722  0.7499999995574260  0.5545402967596520  
  0.1667714667657801  0.1250000070909306  0.4460179556847785  
  0.1667714810144622  0.1250000037268687  0.9460179610108961  
  0.1667714683820666  0.6249999920919996  0.4460179463124812  
  0.1667714766421634  0.6250000033189652  0.9460179493739884  
  0.1667714764925729  0.3749999999707821  0.4460179707480598  
  0.1667714661963129  0.3749999922091237  0.9460179431468521  
  0.1667714722184815  0.8750000044298665  0.4460179545272114  
  0.1667714740049175  0.8750000034262486  0.9460179490538123  
  0.6667714789968108  0.1250000052429848  0.4460179471452736  
  0.6667714743600369  0.1250000024319781  0.9460179493546739  
  0.6667714749483504  0.6250000040826749  0.4460179585502401  
  0.6667714758945233  0.6250000039057170  0.9460179555598619  
  0.6667714726334110  0.3749999936244109  0.4460179472159432  
  0.6667714739836047  0.3749999945230575  0.9460179367471293  
  0.6667714770828566  0.8749999923629059  0.4460179563325460  
  0.6667714770669578  0.8749999993171662  0.9460179569804271  
