Ga O
1.0
  25.4612460750723990  -0.0629166874464207   0.1753330399876510
  -0.0297440825604409  11.6380876361704999  -0.0030779155221769
  -2.7616170837420002   0.0047590937045522  11.3752776676367997
Ga O
128  192  
Direct
  0.4565438465790008  0.1250464753071147  0.2307695468299665  
  0.3749365470705924  0.1246504389066626  0.9412877250919108  
  0.3747885622676115  0.6222438727352412  0.4443672900780232  
  0.3752964353695416  0.6176218190079802  0.9327273970622963  
  0.4202855259946951  0.3806813590690529  0.0889859345696421  
  0.4164122239784004  0.3717284715814083  0.8405919235290993  
  0.4192328356454908  0.8741072848206720  0.3298761279964026  
  0.4148626895280118  0.8751577858379421  0.8512808051827779  
  0.9116988767725710  0.1310773237943552  0.3227507102896850  
  0.9164769666446591  0.1238271960838869  0.8297342309139594  
  0.9194890155097846  0.6174947876149919  0.3350662734271297  
  0.9121958401974244  0.6155258446751604  0.8235285553748690  
  0.8724909169346943  0.3734955604504036  0.4359494671599783  
  0.8725498558090262  0.3686425947856750  0.9308647763146404  
  0.9584584124060663  0.8783097311209547  0.2240905538268289  
  0.8745661235245927  0.8774319409313591  0.9344202438756607  
  0.3335779651978049  0.0007247470815680  0.1692903842346472  
  0.3364878278917066  0.0145046705702450  0.6730444294127217  
  0.3327368397557246  0.4989779686817257  0.1725176533987889  
  0.3272243199675534  0.4891586531050436  0.6748941981565958  
  0.3279844405292962  0.2472005182850879  0.1756396611900164  
  0.2565398832694605  0.1354398026366365  0.4980353260028019  
  0.3381428526511769  0.7533166680563158  0.1624286043174667  
  0.3292929878918198  0.7467396612091530  0.6772653812013787  
  0.8287124818091974  0.0085137788094651  0.1496184045083690  
  0.7540619598371074  0.8872880014492133  0.5044929635710268  
  0.8348558687739601  0.4901537060620169  0.1656043678233893  
  0.9162410273512456  0.6076000469818815  0.5804973347075004  
  0.7087633458344930  0.1249546022277419  0.1074029098549187  
  0.8326535415902374  0.2470246374376446  0.6634510312012296  
  0.8298157973737021  0.7530622975473613  0.1548259340785149  
  0.8344299910121745  0.7523833443257385  0.6633588688194637  
  0.4995311269548559  0.9998043593082998  0.0222034633232141  
  0.4167229713515326  0.8721371465893528  0.5911288225842827  
  0.4596413046256643  0.6227690195741187  0.2426481131967401  
  0.4206317043814415  0.3677616586345526  0.3458902991032060  
  0.5056741725489650  0.2572356910616144  0.0173032118994731  
  0.4153572286192380  0.3584397037986117  0.5921765825837833  
  0.4934918713892861  0.7406225818245318  0.0106587498317115  
  0.4561764556290608  0.6214140071185138  0.7336299532181724  
  0.9171551897759909  0.1411154178550663  0.0786389809605393  
  0.9998311517761582  0.9986958016169647  0.4934906276084485  
  0.9161390990784255  0.6271351856621102  0.0791039294839006  
  0.9589819197877250  0.3718098133983336  0.7273991592417677  
  0.9603768707757913  0.3720565068385973  0.2283736893417268  
  0.9108479750471578  0.1105450323093366  0.5798430536066207  
  0.0003234271143581  0.7508992382772691  0.9940240953067346  
  0.0022905101857850  0.7375096159657545  0.4991765226161712  
  0.3742171125620355  0.1242734495671152  0.4350080491998308  
  0.2450198722587479  0.1168569629625691  0.0038229634039729  
  0.2470805597585461  0.6368257310011592  0.2520893439982871  
  0.2522582737603535  0.6253921569631006  0.9913711790313150  
  0.2920890100590748  0.3830605435910892  0.4054449965214485  
  0.2923336375742192  0.3715938681026383  0.9018125489244377  
  0.2932813077593012  0.8751471170305848  0.4033556035739955  
  0.2918330434345722  0.8838532833361847  0.9041804119374321  
  0.7920638587544575  0.1240191813433741  0.3913575470015075  
  0.7947061842866137  0.1272116423343587  0.8888672904963557  
  0.7944493751758631  0.6302975102081023  0.3944658095115248  
  0.7904470721257384  0.6324878851733732  0.8880355097260685  
  0.7541041082312000  0.3841896836468389  0.5025297645779141  
  0.7530492851144931  0.3697857016284638  0.9992616887488763  
  0.8733519117359122  0.8688877964513081  0.4317023862787499  
  0.7557493515158945  0.8848911016963449  0.7605068082053702  
  0.1752836852042431  0.9942964034208922  0.3274445208693588  
  0.0879435961294131  0.8831244385124267  0.9103497427019817  
  0.1645924120032414  0.5123350031297459  0.3303361712257976  
  0.1702072302221695  0.5003345849195012  0.8264246558273690  
  0.1708655225567376  0.2493387866492586  0.3275364284032186  
  0.1639169943686156  0.2360186653853835  0.8284140221092017  
  0.2459672761656370  0.6336233485769055  0.5050399785289250  
  0.1739687538837531  0.7587049500836788  0.8244552916374533  
  0.6619617626739718  0.0028629685243806  0.3249318032018212  
  0.6699463801305697  0.9960361419199021  0.8448153336703642  
  0.6678150801121938  0.5003796490237741  0.3326293458436202  
  0.6617719835721866  0.5049891642572837  0.8213766237896929  
  0.6635195845160042  0.2477719342445453  0.3244709102564277  
  0.6667674426638891  0.2511666100699477  0.8317192252294344  
  0.6668597015603600  0.7512963496515499  0.3348853684270546  
  0.6661950786055113  0.7517483990323373  0.8345910569536393  
  0.0415661372662257  0.1222537825658345  0.2683803757221744  
  0.1280024325382322  0.1287673522236399  0.5583679619039792  
  0.0884404375677808  0.8682939466673758  0.1673171429251866  
  0.0411127661220771  0.6263639462263931  0.7667595937014207  
  0.0800632285217874  0.3652526648463949  0.1602211359025515  
  0.0796667711947861  0.3841978908331622  0.6598219308529291  
  0.0021633397837533  0.0135090469114431  0.9987631180150672  
  0.0878853441268284  0.8837453205624650  0.6661280316679049  
  0.5842038911938415  0.1215943345564492  0.9324113341789420  
  0.5799341573792083  0.1313693705389694  0.6677420332434101  
  0.5785250655699251  0.6160246346987368  0.1642182094522657  
  0.5044916612923642  0.4908970554614359  0.5202371469787436  
  0.6254112061926442  0.3785516116439533  0.0569501445733769  
  0.6257681273569063  0.3716977484954792  0.5589129221385034  
  0.5419560684250976  0.8729678947199682  0.2770301473293917  
  0.5042938449707348  0.7462484512695784  0.5187884043483915  
  0.1268994632900921  0.1275515050072547  0.0660387160274642  
  0.2505393583372718  0.1261592906505519  0.7512463259795058  
  0.1264898083880935  0.6226888259388405  0.0572442154256032  
  0.1275703528475011  0.6233412025186834  0.5653064463426907  
  0.2073817168912966  0.3760806623263288  0.0975095204041379  
  0.2076039995111188  0.3712548000532973  0.5979011000558099  
  0.2095049537852022  0.8748971401422707  0.0967469572093413  
  0.2094226127618322  0.8814967920109307  0.5971986801126851  
  0.7476899719874254  0.8750770565315373  0.2363949864209547  
  0.7067611657044788  0.1246844435969024  0.6042997501981333  
  0.7071898116953884  0.6232269523427296  0.1010724363049853  
  0.7096585656607055  0.6297022115443196  0.6109301382354556  
  0.7533846580139528  0.3648468279434228  0.2463481150669873  
  0.7544370224513789  0.3875456548398283  0.7476645803054446  
  0.6209848509016926  0.8701190405314615  0.0544478045392328  
  0.6255429750567175  0.8801771004856879  0.5641780411730436  
  0.0882692730832633  0.8682178852610762  0.4109751857975134  
  0.0378691304719266  0.1222850620717271  0.7641346796432972  
  0.0801832798724561  0.3829463341531416  0.4151535912939968  
  0.9979517860860230  0.4888443365236428  0.9939459198892496  
  0.9970883749948942  0.2578467277325255  0.4960256369564295  
  0.0799166574667673  0.3649128949618458  0.9141166493035705  
  0.0403684601478602  0.6269427732271294  0.2659165122810948  
  0.9601273969523237  0.8739998436707586  0.7257151161685922  
  0.4979789452226109  0.0115225295223149  0.5037540940147999  
  0.4602991424636613  0.1265472962624037  0.7419808702002966  
  0.5405420783854743  0.3758712484823969  0.2804927218492030  
  0.5758163397843316  0.6190612263754000  0.9077899179976021  
  0.5778753356047841  0.1325245681656771  0.4099434638029065  
  0.5378673469566126  0.3725219493793682  0.7801440766446224  
  0.5855529059511398  0.6254333994825647  0.4328805999982229  
  0.5422089801982867  0.8740106430428706  0.7844363287093605  
  0.2501973207132726  0.0031757246301603  0.3885259382638633  
  0.2503453454985819  0.0137085945209964  0.8761627129334244  
  0.2452162750094422  0.5127853765582289  0.3697177755588693  
  0.2466350012411331  0.4969239592039729  0.8871313287130382  
  0.2475434380382405  0.2563239074647209  0.3826574010678805  
  0.2448856423274187  0.2426389275055510  0.8729078910341229  
  0.2534848097386073  0.7412985432157482  0.3784925290854333  
  0.2496043906982703  0.7506429534174803  0.8840266034400633  
  0.7461985429697930  0.9915618968217661  0.3700804102377939  
  0.7469925460890617  0.0054744123468262  0.8648804686335665  
  0.7486656021930981  0.4964915975491005  0.3705198476271662  
  0.7473725466157994  0.4953956671017783  0.8724160181431669  
  0.7471006018093326  0.2579611448746227  0.3715768042766269  
  0.7476064217850652  0.2597157676628507  0.8693932158068876  
  0.7469744978528262  0.7596871220261633  0.3716770191163892  
  0.7459368719897169  0.7570855433321801  0.8626830640912707  
  0.9960862536593650  0.1151959593959914  0.1222570894277736  
  0.9953438596282280  0.1232098348352307  0.6066386391501413  
  0.9963411262317557  0.6251163095214498  0.1095387371935244  
  0.9954871065482421  0.6333144915470176  0.6203191219236091  
  0.0033174875152838  0.3874891302490480  0.1234519888558119  
  0.0028913364731372  0.3625523776079707  0.6229595230484251  
  0.0024964071656045  0.8740863686685044  0.1126195257820086  
  0.0032082690115578  0.8735361674730495  0.6109957802589034  
  0.4981695175809283  0.1287473360077684  0.1212952536020034  
  0.5034131357839644  0.1134243475186870  0.6341305190135268  
  0.5023713273526552  0.6290757106295624  0.1359918910396652  
  0.4965972062311409  0.6227822984247858  0.6196098011517013  
  0.4979654979363514  0.3691700170227916  0.1322637553851249  
  0.4954194976100832  0.3789003975682250  0.6302961686041304  
  0.5034808628535318  0.8699401070762753  0.1246275789945013  
  0.4983703751333373  0.8739870689941684  0.6255498907866405  
  0.4130225054264835  0.9969778154511816  0.2203335599364788  
  0.4156352354073496  0.9912675946576677  0.7136102983035120  
  0.4133735864367469  0.4924913307370753  0.2142974857994946  
  0.4126057882389252  0.4885288614182187  0.7129741983145220  
  0.4129060385077344  0.2607240395202604  0.2128617665833332  
  0.4176071345150707  0.2537581266558580  0.7190931375960808  
  0.4142352729272517  0.7465805435343128  0.2250852374090761  
  0.4130029492829087  0.7585629828070057  0.7126747505138139  
  0.9137168351872065  0.0088058361986416  0.2052576169056450  
  0.9201853580028856  0.0056928540334088  0.7068612654624611  
  0.9147867847731013  0.5067620040451483  0.2022532693385482  
  0.9191018758090538  0.5048710209330264  0.7083324908332786  
  0.9177993540064520  0.2435021896419784  0.2068316925037089  
  0.9143462088649214  0.2393837131276956  0.6998297332400676  
  0.9148880137204189  0.7416865319681220  0.2038519597818078  
  0.9152750898461541  0.7411482463597100  0.7057954204452567  
  0.3334753223148135  0.1235153015368523  0.2837651933739546  
  0.3303389710765052  0.1198474002776826  0.7929139983554278  
  0.3306403133012267  0.6236999949832001  0.2855635889547077  
  0.3330479212132952  0.6213909775106800  0.7826219719399610  
  0.3344681084035633  0.3770828276154381  0.2899042616295894  
  0.3358658000259344  0.3779615432876469  0.7984304689597451  
  0.3371244855872882  0.8728514530684205  0.2907189497334338  
  0.3355567640336856  0.8760986327176405  0.7903442252372410  
  0.8355899053959661  0.1121319440680419  0.2863377427449103  
  0.8379131170724222  0.1305349425235498  0.7831139206773768  
  0.8374068333937391  0.6254431208175164  0.2790371927994588  
  0.8363213319025038  0.6325833376425879  0.7870429806194824  
  0.8298384077294441  0.3818834630971445  0.2852216750321249  
  0.8301667514315587  0.3684734872683045  0.7812887831286199  
  0.8296952661791748  0.8711731133869708  0.2775130373726310  
  0.8322411825895706  0.8693478415925919  0.7857359165194689  
  0.3304491236970394  0.1286569957880164  0.0520177707553817  
  0.3328389484726192  0.1168314199461996  0.5440439117018524  
  0.3318482678076142  0.6226451736220078  0.0502871438565105  
  0.3300836689600846  0.6270913952385251  0.5521191189962421  
  0.3360566447164852  0.3741829474340312  0.0594668751664162  
  0.3379631586406630  0.3887097341148791  0.5496968901860856  
  0.3340615088004595  0.8766298410115448  0.0554981886834238  
  0.3378247854424652  0.8759877273551733  0.5591205143414840  
  0.8384183873500971  0.1190170989251702  0.0380522391173900  
  0.8347942608157659  0.1303095639898589  0.5407901325356979  
  0.8358739462278117  0.6258197355789969  0.0466744026831374  
  0.8382536087539673  0.6351252506131975  0.5423037824162311  
  0.8298934208522236  0.3869647171520633  0.0376979336633294  
  0.8297805039466963  0.3656199346867439  0.5421992994054238  
  0.8377839845023000  0.8755411945073853  0.0527869782886496  
  0.8311038341155690  0.8701552664620318  0.5388093221760039  
  0.4197428472837790  0.9893709295525238  0.4664649409499846  
  0.4209340989416779  0.0007674958957077  0.9568581946743565  
  0.4196571477129632  0.4922146358917472  0.4624584386783852  
  0.4152898217275798  0.4872820833985427  0.9646191140591989  
  0.4141950252541725  0.2573952178914937  0.4616577437335516  
  0.4189023340330745  0.2577362236476237  0.9695750036312863  
  0.4193769931782425  0.7578435398358835  0.4661576617718837  
  0.4171641306086132  0.7492074067294154  0.9582059952835625  
  0.9186836061935774  0.0024840847006392  0.4537668880663535  
  0.9213059888192445  0.0069071279539601  0.9574061097615225  
  0.9142679202313450  0.5050425583876303  0.4522198090864216  
  0.9179703519249980  0.5061144907189516  0.9571150535760810  
  0.9176527800012516  0.2401952504257086  0.4551121130747014  
  0.9169956992501804  0.2436287838795205  0.9521468151976616  
  0.9206984195474910  0.7407254648815695  0.4544581751782404  
  0.9199430735600654  0.7415718260385704  0.9562226849172619  
  0.9964523496353063  0.1238640024147366  0.3790875151549045  
  0.9962319565688944  0.1206296317252627  0.8725627296172248  
  0.9964789852610203  0.6310293829158904  0.3702515751700396  
  0.9970185423089278  0.6246080666970304  0.8802076160859557  
  0.0029019670002868  0.3679178082146894  0.3775766427995558  
  0.0029782721727941  0.3811390400195828  0.8758733364013639  
  0.0026071665834046  0.8753633554508161  0.3795843418408413  
  0.0037731632811382  0.8731394037369801  0.8818348438506808  
  0.5017693692097323  0.1175788472223963  0.3807408633445950  
  0.5052125764774877  0.1233377041726696  0.8949430227307587  
  0.5054738231722316  0.6266738340892934  0.3954648294032483  
  0.5003088789067809  0.6348572571561374  0.8819779349976428  
  0.4968979772769461  0.3894466265996690  0.3835514920580833  
  0.4959163207221172  0.3635621924451526  0.8870629236926298  
  0.4981144066678559  0.8726555914724184  0.3906297377882559  
  0.4958513334905921  0.8754436109503041  0.8898009170440905  
  0.2537170991591554  0.0006108868761898  0.1213914311655902  
  0.2547796397954579  0.0112900767956806  0.6285987148483996  
  0.2522076363387754  0.5100438224822419  0.1279323371878887  
  0.2503411014500980  0.5002466023262881  0.6121034075609358  
  0.2510431543179952  0.2501995920262055  0.1137876793515320  
  0.2465443696699481  0.2382224307332368  0.6230588602819818  
  0.2540630241677244  0.7405339097320812  0.1262618999921752  
  0.2525989913699420  0.7536626178641467  0.6186333091241252  
  0.7521803342562202  0.9975318728155832  0.1310248614159065  
  0.7458052097197208  0.9914322516766648  0.6240484020840473  
  0.7526722271286677  0.4911766191843521  0.1247091543880818  
  0.7468465911586046  0.4935359264570605  0.6204216864639073  
  0.7469867427181982  0.2605729892700382  0.1188748109215724  
  0.7506554396813524  0.2593950543350890  0.6241791388463928  
  0.7527300243199823  0.7472230876397540  0.1354211250273255  
  0.7535378895841610  0.7620170272835971  0.6228740276396357  
  0.1632955334861465  0.1246391162922725  0.2196744177067732  
  0.1681977852075210  0.1287548229094447  0.7087425633786717  
  0.1687097509562565  0.6184390736704635  0.2062728532971087  
  0.1631860237103950  0.6264379622357507  0.7200994624374936  
  0.1625407181093385  0.3769949023435920  0.2103076722762475  
  0.1619138663272908  0.3737688811081399  0.7111449056251717  
  0.1645746796893214  0.8841457635852563  0.2014371555961378  
  0.1636575207409370  0.8671621439858780  0.6997221602044601  
  0.6682793833052968  0.1247932083735785  0.2192113618116060  
  0.6638719689016558  0.1258305404651029  0.7182127735193811  
  0.6654744186355009  0.6254539670169931  0.2177739880738918  
  0.6671338352798304  0.6284048972243427  0.7176481742587567  
  0.6706557084053143  0.3774564936256222  0.2159109795929866  
  0.6701618485850225  0.3753824800746164  0.7158403915991645  
  0.6673964070685392  0.8731256022679117  0.2139583979591454  
  0.6690416153981900  0.8781615406926266  0.7183705131357346  
  0.0846682306942413  0.9889679153830226  0.2885491727143079  
  0.0793604876959377  0.9914836476210558  0.7836831586462275  
  0.0845699580288516  0.4948370070448706  0.2874448009390865  
  0.0844244283137358  0.4924516594003985  0.7918011403456935  
  0.0842758853623548  0.2578798271805566  0.2916245594076149  
  0.0838764501052160  0.2545750244837156  0.7871418975885391  
  0.0807220605592663  0.7588792157695653  0.2845536367837943  
  0.0846636288786950  0.7606268621792142  0.7884583766735140  
  0.5868304583899376  0.9993032980121300  0.3125525225009657  
  0.5874275707677907  0.0091650677266437  0.7979940716389684  
  0.5881941472171046  0.5083692076595181  0.2976520152919857  
  0.5859481503040852  0.4955745514689147  0.8065969769247047  
  0.5877058227976582  0.2541485537062040  0.3071892554581886  
  0.5869470592807244  0.2421837255987348  0.7970914120381646  
  0.5878296481802164  0.7385320163048802  0.2978152366414972  
  0.5869596693928441  0.7481201701757670  0.8081423847402960  
  0.0809286803039861  0.9920305621533408  0.0369698934268320  
  0.0803317177185203  0.9956104542987146  0.5344470339267980  
  0.0796290591332797  0.4919707630826213  0.0364121906545534  
  0.0844320573891466  0.4925494333254288  0.5399717531637621  
  0.0839886789711327  0.2576235396017065  0.0404542730564737  
  0.0797141229390027  0.2578265024522746  0.5363407742831690  
  0.0804284170933281  0.7545446603921809  0.0363087488975648  
  0.0809627832291428  0.7572166795842024  0.5356571172877765  
  0.5798443692093085  0.9995341318728360  0.0377816312050258  
  0.5804046913786955  0.0103229863609363  0.5461042700004360  
  0.5886490209167065  0.5130475378756838  0.0457845203757355  
  0.5829334027993268  0.4990980861511918  0.5357570466807429  
  0.5837640748425652  0.2495131153591587  0.0366451417604876  
  0.5886476468482603  0.2360764651721204  0.5462966902471903  
  0.5794432165213269  0.7352987652541875  0.0449765117467785  
  0.5820883576689885  0.7523008095214198  0.5354261071377094  
  0.1694344130154284  0.1275756844194451  0.4456759064750117  
  0.1674509838650809  0.1305398850271044  0.9562625827180417  
  0.1682056051561174  0.6216486037093543  0.4550009885031758  
  0.1699100799744326  0.6223919134734582  0.9483685066711419  
  0.1607867122128454  0.3758152119324762  0.4411179385147040  
  0.1606268597288931  0.3757330297884529  0.9430250194249759  
  0.1633447840333229  0.8901357722656534  0.4501375975357740  
  0.1629974097332173  0.8598430771713080  0.9502314321070849  
  0.6650413074568512  0.1258005315836561  0.4477334348501818  
  0.6651207504329892  0.1267683856067966  0.9519165233092580  
  0.6662953249361678  0.6260790011869892  0.4521596856851510  
  0.6651366413769605  0.6233524179340040  0.9484564533279297  
  0.6723392216816555  0.3760480055809786  0.4494461876322956  
  0.6716520157463950  0.3767245063001348  0.9483987445352393  
  0.6706878213634483  0.8751986686857695  0.4522271129123309  
  0.6668219798005377  0.8739426345344751  0.9529499319501087  
