Ga32 O48
1.0
       24.9361381531         0.0000000000         0.0000000000
        0.0000000000        12.3494291306         0.0000000000
       -2.7833760078         0.0000000000        11.4316290934
   Ga    O
  144  192
Direct
     0.000000000         0.250000000         0.000000000
     0.000000000         0.750000000         0.000000000
     0.000000000         0.250000000         0.500000000
     0.000000000         0.750000000         0.500000000
     0.000000000         0.000000000         0.000000000
     0.000000000         0.500000000         0.000000000
     0.000000000         0.000000000         0.500000000
     0.000000000         0.500000000         0.500000000
     0.041664999         0.125000000         0.269679993
     0.041664999         0.625000000         0.269679993
     0.041664999         0.125000000         0.769680023
     0.041664999         0.625000000         0.769680023
     0.083329998         0.375000000         0.416779995
     0.083329998         0.875000000         0.416779995
     0.083329998         0.375000000         0.916779995
     0.083329998         0.875000000         0.916779995
     0.125000000         0.125000000         0.062500000
     0.125000000         0.625000000         0.062500000
     0.125000000         0.125000000         0.562500000
     0.125000000         0.625000000         0.562500000
     0.208333313         0.375000000         0.104455598
     0.208333313         0.875000000         0.104455598
     0.208333313         0.375000000         0.604455590
     0.208333313         0.875000000         0.604455590
     0.250000000         0.125000000         0.250000000
     0.250000000         0.625000000         0.250000000
     0.250000000         0.125000000         0.750000000
     0.250000000         0.625000000         0.750000000
     0.250000000         0.125000000         0.000000000
     0.250000000         0.625000000         0.000000000
     0.250000000         0.125000000         0.500000000
     0.250000000         0.625000000         0.500000000
     0.291666657         0.375000000         0.396237850
     0.291666657         0.875000000         0.396237850
     0.291666657         0.375000000         0.896237850
     0.291666657         0.875000000         0.896237850
     0.375000000         0.125000000         0.437500000
     0.375000000         0.625000000         0.437500000
     0.375000000         0.125000000         0.937500000
     0.375000000         0.625000000         0.937500000
     0.416669995         0.375000000         0.083219998
     0.416669995         0.875000000         0.083219998
     0.416669995         0.375000000         0.583220005
     0.416669995         0.875000000         0.583220005
     0.458335012         0.125000000         0.230320007
     0.458335012         0.625000000         0.230320007
     0.458335012         0.125000000         0.730319977
     0.458335012         0.625000000         0.730319977
     0.500000000         0.000000000         0.000000000
     0.500000000         0.500000000         0.000000000
     0.500000000         0.000000000         0.500000000
     0.500000000         0.500000000         0.500000000
     0.500000000         0.250000000         0.000000000
     0.500000000         0.750000000         0.000000000
     0.500000000         0.250000000         0.500000000
     0.500000000         0.750000000         0.500000000
     0.541665018         0.375000000         0.269679993
     0.541665018         0.875000000         0.269679993
     0.541665018         0.375000000         0.769680023
     0.541665018         0.875000000         0.769680023
     0.583329976         0.125000000         0.416779995
     0.583329976         0.625000000         0.416779995
     0.583329976         0.125000000         0.916779995
     0.583329976         0.625000000         0.916779995
     0.625000000         0.375000000         0.062500000
     0.625000000         0.875000000         0.062500000
     0.625000000         0.375000000         0.562500000
     0.625000000         0.875000000         0.562500000
     0.708333313         0.125000000         0.104455598
     0.708333313         0.625000000         0.104455598
     0.708333313         0.125000000         0.604455590
     0.708333313         0.625000000         0.604455590
     0.750000000         0.375000000         0.250000000
     0.750000000         0.875000000         0.250000000
     0.750000000         0.375000000         0.750000000
     0.750000000         0.875000000         0.750000000
     0.750000000         0.375000000         0.000000000
     0.750000000         0.875000000         0.000000000
     0.750000000         0.375000000         0.500000000
     0.750000000         0.875000000         0.500000000
     0.791666627         0.125000000         0.396237850
     0.791666627         0.625000000         0.396237850
     0.791666627         0.125000000         0.896237850
     0.791666627         0.625000000         0.896237850
     0.875000000         0.375000000         0.437500000
     0.875000000         0.875000000         0.437500000
     0.875000000         0.375000000         0.937500000
     0.875000000         0.875000000         0.937500000
     0.916670024         0.125000000         0.083910003
     0.916670024         0.625000000         0.083910003
     0.916670024         0.125000000         0.583909988
     0.916670024         0.625000000         0.583909988
     0.958334982         0.375000000         0.230320007
     0.958334982         0.875000000         0.230320007
     0.958334982         0.375000000         0.730319977
     0.958334982         0.875000000         0.730319977
     0.416666627         0.375000000         0.333911180
     0.416666627         0.875000000         0.333911180
     0.416666627         0.375000000         0.833911180
     0.416666627         0.875000000         0.833911180
     0.916666627         0.125000000         0.333911180
     0.916666627         0.625000000         0.333911180
     0.916666627         0.125000000         0.833911180
     0.916666627         0.625000000         0.833911180
     0.333333343         0.000000000         0.167128965
     0.333333343         0.500000000         0.167128965
     0.333333343         0.000000000         0.667128980
     0.333333343         0.500000000         0.667128980
     0.333333343         0.250000000         0.167128965
     0.333333343         0.750000000         0.167128965
     0.333333343         0.250000000         0.667128980
     0.333333343         0.750000000         0.667128980
     0.833333373         0.000000000         0.167128965
     0.833333373         0.500000000         0.167128965
     0.833333373         0.000000000         0.667128980
     0.833333373         0.500000000         0.667128980
     0.833333373         0.250000000         0.167128965
     0.833333373         0.750000000         0.167128965
     0.833333373         0.250000000         0.667128980
     0.833333373         0.750000000         0.667128980
     0.166666672         0.000000000         0.333564490
     0.166666672         0.500000000         0.333564490
     0.166666672         0.000000000         0.833564520
     0.166666672         0.500000000         0.833564520
     0.166666672         0.250000000         0.333564490
     0.166666672         0.750000000         0.333564490
     0.166666672         0.250000000         0.833564520
     0.166666672         0.750000000         0.833564520
     0.666666687         0.000000000         0.333564490
     0.666666687         0.500000000         0.333564490
     0.666666687         0.000000000         0.833564520
     0.666666687         0.500000000         0.833564520
     0.666666687         0.250000000         0.333564490
     0.666666687         0.750000000         0.333564490
     0.666666687         0.250000000         0.833564520
     0.666666687         0.750000000         0.833564520
     0.083333336         0.375000000         0.166782245
     0.083333336         0.875000000         0.166782245
     0.083333336         0.375000000         0.666782260
     0.083333336         0.875000000         0.666782260
     0.583333313         0.125000000         0.166782245
     0.583333313         0.625000000         0.166782245
     0.583333313         0.125000000         0.666782260
     0.583333313         0.625000000         0.666782260
     0.249999985         0.000000000         0.375346720
     0.249999985         0.500000000         0.375346720
     0.249999985         0.000000000         0.875346720
     0.249999985         0.500000000         0.875346720
     0.249999985         0.250000000         0.375346720
     0.249999985         0.750000000         0.375346720
     0.249999985         0.250000000         0.875346720
     0.249999985         0.750000000         0.875346720
     0.750000000         0.000000000         0.375346720
     0.750000000         0.500000000         0.375346720
     0.750000000         0.000000000         0.875346720
     0.750000000         0.500000000         0.875346720
     0.750000000         0.250000000         0.375346720
     0.750000000         0.750000000         0.375346720
     0.750000000         0.250000000         0.875346720
     0.750000000         0.750000000         0.875346720
     0.000000000         0.125000000         0.125000000
     0.000000000         0.625000000         0.125000000
     0.000000000         0.125000000         0.625000000
     0.000000000         0.625000000         0.625000000
     0.000000000         0.375000000         0.125000000
     0.000000000         0.875000000         0.125000000
     0.000000000         0.375000000         0.625000000
     0.000000000         0.875000000         0.625000000
     0.500000000         0.125000000         0.125000000
     0.500000000         0.625000000         0.125000000
     0.500000000         0.125000000         0.625000000
     0.500000000         0.625000000         0.625000000
     0.500000000         0.375000000         0.125000000
     0.500000000         0.875000000         0.125000000
     0.500000000         0.375000000         0.625000000
     0.500000000         0.875000000         0.625000000
     0.416666627         0.000000000         0.208911195
     0.416666627         0.500000000         0.208911195
     0.416666627         0.000000000         0.708911180
     0.416666627         0.500000000         0.708911180
     0.416666627         0.250000000         0.208911195
     0.416666627         0.750000000         0.208911195
     0.416666627         0.250000000         0.708911180
     0.416666627         0.750000000         0.708911180
     0.916666627         0.000000000         0.208911195
     0.916666627         0.500000000         0.208911195
     0.916666627         0.000000000         0.708911180
     0.916666627         0.500000000         0.708911180
     0.916666627         0.250000000         0.208911195
     0.916666627         0.750000000         0.208911195
     0.916666627         0.250000000         0.708911180
     0.916666627         0.750000000         0.708911180
     0.333333343         0.125000000         0.292128950
     0.333333343         0.625000000         0.292128950
     0.333333343         0.125000000         0.792128921
     0.333333343         0.625000000         0.792128921
     0.333333343         0.375000000         0.292128950
     0.333333343         0.875000000         0.292128950
     0.333333343         0.375000000         0.792128921
     0.333333343         0.875000000         0.792128921
     0.833333373         0.125000000         0.292128950
     0.833333373         0.625000000         0.292128950
     0.833333373         0.125000000         0.792128921
     0.833333373         0.625000000         0.792128921
     0.833333373         0.375000000         0.292128950
     0.833333373         0.875000000         0.292128950
     0.833333373         0.375000000         0.792128921
     0.833333373         0.875000000         0.792128921
     0.333333343         0.125000000         0.042128962
     0.333333343         0.625000000         0.042128962
     0.333333343         0.125000000         0.542128980
     0.333333343         0.625000000         0.542128980
     0.333333343         0.375000000         0.042128962
     0.333333343         0.875000000         0.042128962
     0.333333343         0.375000000         0.542128980
     0.333333343         0.875000000         0.542128980
     0.833333373         0.125000000         0.042128962
     0.833333373         0.625000000         0.042128962
     0.833333373         0.125000000         0.542128980
     0.833333373         0.625000000         0.542128980
     0.833333373         0.375000000         0.042128962
     0.833333373         0.875000000         0.042128962
     0.833333373         0.375000000         0.542128980
     0.833333373         0.875000000         0.542128980
     0.416666627         0.000000000         0.458911180
     0.416666627         0.500000000         0.458911180
     0.416666627         0.000000000         0.958911180
     0.416666627         0.500000000         0.958911180
     0.416666627         0.250000000         0.458911180
     0.416666627         0.750000000         0.458911180
     0.416666627         0.250000000         0.958911180
     0.416666627         0.750000000         0.958911180
     0.916666627         0.000000000         0.458911180
     0.916666627         0.500000000         0.458911180
     0.916666627         0.000000000         0.958911180
     0.916666627         0.500000000         0.958911180
     0.916666627         0.250000000         0.458911180
     0.916666627         0.750000000         0.458911180
     0.916666627         0.250000000         0.958911180
     0.916666627         0.750000000         0.958911180
     0.000000000         0.125000000         0.375000000
     0.000000000         0.625000000         0.375000000
     0.000000000         0.125000000         0.875000000
     0.000000000         0.625000000         0.875000000
     0.000000000         0.375000000         0.375000000
     0.000000000         0.875000000         0.375000000
     0.000000000         0.375000000         0.875000000
     0.000000000         0.875000000         0.875000000
     0.500000000         0.125000000         0.375000000
     0.500000000         0.625000000         0.375000000
     0.500000000         0.125000000         0.875000000
     0.500000000         0.625000000         0.875000000
     0.500000000         0.375000000         0.375000000
     0.500000000         0.875000000         0.375000000
     0.500000000         0.375000000         0.875000000
     0.500000000         0.875000000         0.875000000
     0.249999985         0.000000000         0.125346720
     0.249999985         0.500000000         0.125346720
     0.249999985         0.000000000         0.625346720
     0.249999985         0.500000000         0.625346720
     0.249999985         0.250000000         0.125346720
     0.249999985         0.750000000         0.125346720
     0.249999985         0.250000000         0.625346720
     0.249999985         0.750000000         0.625346720
     0.750000000         0.000000000         0.125346720
     0.750000000         0.500000000         0.125346720
     0.750000000         0.000000000         0.625346720
     0.750000000         0.500000000         0.625346720
     0.750000000         0.250000000         0.125346720
     0.750000000         0.750000000         0.125346720
     0.750000000         0.250000000         0.625346720
     0.750000000         0.750000000         0.625346720
     0.166666672         0.125000000         0.208564475
     0.166666672         0.625000000         0.208564475
     0.166666672         0.125000000         0.708564460
     0.166666672         0.625000000         0.708564460
     0.166666672         0.375000000         0.208564475
     0.166666672         0.875000000         0.208564475
     0.166666672         0.375000000         0.708564460
     0.166666672         0.875000000         0.708564460
     0.666666687         0.125000000         0.208564475
     0.666666687         0.625000000         0.208564475
     0.666666687         0.125000000         0.708564460
     0.666666687         0.625000000         0.708564460
     0.666666687         0.375000000         0.208564475
     0.666666687         0.875000000         0.208564475
     0.666666687         0.375000000         0.708564460
     0.666666687         0.875000000         0.708564460
     0.083333336         0.000000000         0.291782230
     0.083333336         0.500000000         0.291782230
     0.083333336         0.000000000         0.791782260
     0.083333336         0.500000000         0.791782260
     0.083333336         0.250000000         0.291782230
     0.083333336         0.750000000         0.291782230
     0.083333336         0.250000000         0.791782260
     0.083333336         0.750000000         0.791782260
     0.583333313         0.000000000         0.291782230
     0.583333313         0.500000000         0.291782230
     0.583333313         0.000000000         0.791782260
     0.583333313         0.500000000         0.791782260
     0.583333313         0.250000000         0.291782230
     0.583333313         0.750000000         0.291782230
     0.583333313         0.250000000         0.791782260
     0.583333313         0.750000000         0.791782260
     0.083333336         0.000000000         0.041782241
     0.083333336         0.500000000         0.041782241
     0.083333336         0.000000000         0.541782260
     0.083333336         0.500000000         0.541782260
     0.083333336         0.250000000         0.041782241
     0.083333336         0.750000000         0.041782241
     0.083333336         0.250000000         0.541782260
     0.083333336         0.750000000         0.541782260
     0.583333313         0.000000000         0.041782241
     0.583333313         0.500000000         0.041782241
     0.583333313         0.000000000         0.541782260
     0.583333313         0.500000000         0.541782260
     0.583333313         0.250000000         0.041782241
     0.583333313         0.750000000         0.041782241
     0.583333313         0.250000000         0.541782260
     0.583333313         0.750000000         0.541782260
     0.166666672         0.125000000         0.458564490
     0.166666672         0.625000000         0.458564490
     0.166666672         0.125000000         0.958564520
     0.166666672         0.625000000         0.958564520
     0.166666672         0.375000000         0.458564490
     0.166666672         0.875000000         0.458564490
     0.166666672         0.375000000         0.958564520
     0.166666672         0.875000000         0.958564520
     0.666666687         0.125000000         0.458564490
     0.666666687         0.625000000         0.458564490
     0.666666687         0.125000000         0.958564520
     0.666666687         0.625000000         0.958564520
     0.666666687         0.375000000         0.458564490
     0.666666687         0.875000000         0.458564490
     0.666666687         0.375000000         0.958564520
     0.666666687         0.875000000         0.958564520
