Ga32 O48
1.0
       24.9361381531         0.0000000000         0.0000000000
        0.0000000000         6.1747145653         0.0000000000
       -1.3916880039         0.0000000000         5.7158145467
   Ga    O
   36   48
Direct
     0.458335012         0.250000000         0.460640013
     0.541665018         0.750000000         0.539359987
     0.041664999         0.250000000         0.539359987
     0.958334982         0.750000000         0.460640013
     0.375000000         0.250000000         0.875000000
     0.416666627         0.750000000         0.667822361
     0.916666627         0.250000000         0.667822361
     0.875000000         0.750000000         0.875000000
     0.333333343         0.000000000         0.334257931
     0.333333343         0.500000000         0.334257931
     0.833333373         0.000000000         0.334257931
     0.833333373         0.500000000         0.334257931
     0.500000000         0.000000000         0.000000000
     0.416669995         0.750000000         0.166439995
     0.916670024         0.250000000         0.167820007
     0.000000000         0.500000000         0.000000000
     0.250000000         0.250000000         0.500000000
     0.291666657         0.750000000         0.792475700
     0.791666627         0.250000000         0.792475700
     0.750000000         0.750000000         0.500000000
     0.166666672         0.000000000         0.667128980
     0.166666672         0.500000000         0.667128980
     0.666666687         0.000000000         0.667128980
     0.666666687         0.500000000         0.667128980
     0.125000000         0.250000000         0.125000000
     0.083333336         0.750000000         0.333564490
     0.583333313         0.250000000         0.333564490
     0.625000000         0.750000000         0.125000000
     0.250000000         0.250000000         0.000000000
     0.208333313         0.750000000         0.208911195
     0.708333313         0.250000000         0.208911195
     0.750000000         0.750000000         0.000000000
     0.000000000         0.000000000         0.000000000
     0.083329998         0.750000000         0.833559990
     0.583329976         0.250000000         0.833559990
     0.500000000         0.500000000         0.000000000
     0.249999985         0.000000000         0.750693440
     0.249999985         0.500000000         0.750693440
     0.750000000         0.000000000         0.750693440
     0.750000000         0.500000000         0.750693440
     0.000000000         0.250000000         0.250000000
     0.000000000         0.750000000         0.250000000
     0.500000000         0.250000000         0.250000000
     0.500000000         0.750000000         0.250000000
     0.416666627         0.000000000         0.417822391
     0.416666627         0.500000000         0.417822391
     0.916666627         0.000000000         0.417822391
     0.916666627         0.500000000         0.417822391
     0.333333343         0.250000000         0.584257901
     0.333333343         0.750000000         0.584257901
     0.833333373         0.250000000         0.584257901
     0.833333373         0.750000000         0.584257901
     0.333333343         0.250000000         0.084257923
     0.333333343         0.750000000         0.084257923
     0.833333373         0.250000000         0.084257923
     0.833333373         0.750000000         0.084257923
     0.416666627         0.000000000         0.917822361
     0.416666627         0.500000000         0.917822361
     0.916666627         0.000000000         0.917822361
     0.916666627         0.500000000         0.917822361
     0.000000000         0.250000000         0.750000000
     0.000000000         0.750000000         0.750000000
     0.500000000         0.250000000         0.750000000
     0.500000000         0.750000000         0.750000000
     0.249999985         0.000000000         0.250693440
     0.249999985         0.500000000         0.250693440
     0.750000000         0.000000000         0.250693440
     0.750000000         0.500000000         0.250693440
     0.166666672         0.250000000         0.417128950
     0.166666672         0.750000000         0.417128950
     0.666666687         0.250000000         0.417128950
     0.666666687         0.750000000         0.417128950
     0.083333336         0.000000000         0.583564460
     0.083333336         0.500000000         0.583564460
     0.583333313         0.000000000         0.583564460
     0.583333313         0.500000000         0.583564460
     0.083333336         0.000000000         0.083564483
     0.083333336         0.500000000         0.083564483
     0.583333313         0.000000000         0.083564483
     0.583333313         0.500000000         0.083564483
     0.166666672         0.250000000         0.917128980
     0.166666672         0.750000000         0.917128980
     0.666666687         0.250000000         0.917128980
     0.666666687         0.750000000         0.917128980
